    1C
    1UUSER                                                              
    1UDATE              19.january.2014                                 
    1UTIME              23:50:23                                        
    1UHOST                                                              
    1UPGM               CalculiX                                        
    1UDIR                                                               
    1UDBN                                                               
    2C                           496                                     1
 -1         1 1.00000E-02 0.00000E+00 6.12303E-19
 -1         2 1.16667E-02 0.00000E+00 7.14354E-19
 -1         3 1.33333E-02 0.00000E+00 8.16404E-19
 -1         4 1.50000E-02 0.00000E+00 9.18455E-19
 -1         5 1.66667E-02 0.00000E+00 1.02051E-18
 -1         6 1.83333E-02 0.00000E+00 1.12256E-18
 -1         7 2.00000E-02 0.00000E+00 1.22461E-18
 -1         8 2.16667E-02 0.00000E+00 1.32666E-18
 -1         9 2.33333E-02 0.00000E+00 1.42871E-18
 -1        10 2.50000E-02 0.00000E+00 1.53076E-18
 -1        11 2.66667E-02 0.00000E+00 1.63281E-18
 -1        12 2.83333E-02 0.00000E+00 1.73486E-18
 -1        13 3.00000E-02 0.00000E+00 1.83691E-18
 -1        14 3.16667E-02 0.00000E+00 1.93896E-18
 -1        15 3.33333E-02 0.00000E+00 2.04101E-18
 -1        16 3.50000E-02 0.00000E+00 2.14306E-18
 -1        17 3.66667E-02 0.00000E+00 2.24511E-18
 -1        18 3.83333E-02 0.00000E+00 2.34716E-18
 -1        19 4.00000E-02 0.00000E+00 2.44921E-18
 -1        20 4.16667E-02 0.00000E+00 2.55126E-18
 -1        21 4.33333E-02 0.00000E+00 2.65331E-18
 -1        22 4.50000E-02 0.00000E+00 2.75536E-18
 -1        23 4.66667E-02 0.00000E+00 2.85741E-18
 -1        24 4.83333E-02 0.00000E+00 2.95947E-18
 -1        25 5.00000E-02 0.00000E+00 3.06152E-18
 -1        26 5.16667E-02 0.00000E+00 3.16357E-18
 -1        27 5.33333E-02 0.00000E+00 3.26562E-18
 -1        28 5.50000E-02 0.00000E+00 3.36767E-18
 -1        29 5.66667E-02 0.00000E+00 3.46972E-18
 -1        30 5.83333E-02 0.00000E+00 3.57177E-18
 -1        31 6.00000E-02 0.00000E+00 3.67382E-18
 -1       101 1.00000E-02 5.00000E-03 6.12303E-19
 -1       102 1.16667E-02 5.00000E-03 7.14354E-19
 -1       103 1.33333E-02 5.00000E-03 8.16404E-19
 -1       104 1.50000E-02 5.00000E-03 9.18455E-19
 -1       105 1.66667E-02 5.00000E-03 1.02051E-18
 -1       106 1.83333E-02 5.00000E-03 1.12256E-18
 -1       107 2.00000E-02 5.00000E-03 1.22461E-18
 -1       108 2.16667E-02 5.00000E-03 1.32666E-18
 -1       109 2.33333E-02 5.00000E-03 1.42871E-18
 -1       110 2.50000E-02 5.00000E-03 1.53076E-18
 -1       111 2.66667E-02 5.00000E-03 1.63281E-18
 -1       112 2.83333E-02 5.00000E-03 1.73486E-18
 -1       113 3.00000E-02 5.00000E-03 1.83691E-18
 -1       114 3.16667E-02 5.00000E-03 1.93896E-18
 -1       115 3.33333E-02 5.00000E-03 2.04101E-18
 -1       116 3.50000E-02 5.00000E-03 2.14306E-18
 -1       117 3.66667E-02 5.00000E-03 2.24511E-18
 -1       118 3.83333E-02 5.00000E-03 2.34716E-18
 -1       119 4.00000E-02 5.00000E-03 2.44921E-18
 -1       120 4.16667E-02 5.00000E-03 2.55126E-18
 -1       121 4.33333E-02 5.00000E-03 2.65331E-18
 -1       122 4.50000E-02 5.00000E-03 2.75536E-18
 -1       123 4.66667E-02 5.00000E-03 2.85741E-18
 -1       124 4.83333E-02 5.00000E-03 2.95947E-18
 -1       125 5.00000E-02 5.00000E-03 3.06152E-18
 -1       126 5.16667E-02 5.00000E-03 3.16357E-18
 -1       127 5.33333E-02 5.00000E-03 3.26562E-18
 -1       128 5.50000E-02 5.00000E-03 3.36767E-18
 -1       129 5.66667E-02 5.00000E-03 3.46972E-18
 -1       130 5.83333E-02 5.00000E-03 3.57177E-18
 -1       131 6.00000E-02 5.00000E-03 3.67382E-18
 -1       201 1.00000E-02 6.78571E-03 6.12303E-19
 -1       202 1.16345E-02 6.78004E-03 7.12383E-19
 -1       203 1.32690E-02 6.77436E-03 8.12463E-19
 -1       204 1.49035E-02 6.76869E-03 9.12544E-19
 -1       205 1.65379E-02 6.76302E-03 1.01262E-18
 -1       206 1.81724E-02 6.75734E-03 1.11270E-18
 -1       207 1.98069E-02 6.75167E-03 1.21278E-18
 -1       208 2.14414E-02 6.74599E-03 1.31286E-18
 -1       209 2.30759E-02 6.74032E-03 1.41294E-18
 -1       210 2.47104E-02 6.73464E-03 1.51302E-18
 -1       211 2.63449E-02 6.72897E-03 1.61310E-18
 -1       212 2.79794E-02 6.72329E-03 1.71318E-18
 -1       213 2.96138E-02 6.71762E-03 1.81326E-18
 -1       214 3.12483E-02 6.71194E-03 1.91335E-18
 -1       215 3.28828E-02 6.70627E-03 2.01343E-18
 -1       216 3.45173E-02 6.70059E-03 2.11351E-18
 -1       217 3.61518E-02 6.69492E-03 2.21359E-18
 -1       218 3.77863E-02 6.68924E-03 2.31367E-18
 -1       219 3.94208E-02 6.68357E-03 2.41375E-18
 -1       220 4.10553E-02 6.67789E-03 2.51383E-18
 -1       221 4.26897E-02 6.67222E-03 2.61391E-18
 -1       222 4.43242E-02 6.66655E-03 2.71399E-18
 -1       223 4.59587E-02 6.66087E-03 2.81407E-18
 -1       224 4.75932E-02 6.65520E-03 2.91415E-18
 -1       225 4.92277E-02 6.64952E-03 3.01423E-18
 -1       226 5.08622E-02 6.64385E-03 3.11431E-18
 -1       227 5.24967E-02 6.63817E-03 3.21439E-18
 -1       228 5.41311E-02 6.63250E-03 3.31447E-18
 -1       229 5.57656E-02 6.62682E-03 3.41455E-18
 -1       230 5.74001E-02 6.62115E-03 3.51463E-18
 -1       231 5.90346E-02 6.61547E-03 3.61471E-18
 -1       301 1.00000E-02 8.57143E-03 6.12303E-19
 -1       302 1.16045E-02 8.56132E-03 7.10546E-19
 -1       303 1.32090E-02 8.55121E-03 8.08789E-19
 -1       304 1.48134E-02 8.54110E-03 9.07032E-19
 -1       305 1.64179E-02 8.53099E-03 1.00527E-18
 -1       306 1.80224E-02 8.52089E-03 1.10352E-18
 -1       307 1.96269E-02 8.51078E-03 1.20176E-18
 -1       308 2.12314E-02 8.50067E-03 1.30000E-18
 -1       309 2.28358E-02 8.49056E-03 1.39825E-18
 -1       310 2.44403E-02 8.48045E-03 1.49649E-18
 -1       311 2.60448E-02 8.47034E-03 1.59473E-18
 -1       312 2.76493E-02 8.46023E-03 1.69297E-18
 -1       313 2.92538E-02 8.45012E-03 1.79122E-18
 -1       314 3.08582E-02 8.44002E-03 1.88946E-18
 -1       315 3.24627E-02 8.42991E-03 1.98770E-18
 -1       316 3.40672E-02 8.41980E-03 2.08595E-18
 -1       317 3.56717E-02 8.40969E-03 2.18419E-18
 -1       318 3.72762E-02 8.39958E-03 2.28243E-18
 -1       319 3.88806E-02 8.38947E-03 2.38067E-18
 -1       320 4.04851E-02 8.37936E-03 2.47892E-18
 -1       321 4.20896E-02 8.36926E-03 2.57716E-18
 -1       322 4.36941E-02 8.35915E-03 2.67540E-18
 -1       323 4.52986E-02 8.34904E-03 2.77365E-18
 -1       324 4.69031E-02 8.33893E-03 2.87189E-18
 -1       325 4.85075E-02 8.32882E-03 2.97013E-18
 -1       326 5.01120E-02 8.31871E-03 3.06837E-18
 -1       327 5.17165E-02 8.30860E-03 3.16662E-18
 -1       328 5.33210E-02 8.29849E-03 3.26486E-18
 -1       329 5.49255E-02 8.28839E-03 3.36310E-18
 -1       330 5.65299E-02 8.27828E-03 3.46135E-18
 -1       331 5.81344E-02 8.26817E-03 3.55959E-18
 -1       401 1.00000E-02 1.03571E-02 6.12303E-19
 -1       402 1.15767E-02 1.03438E-02 7.08845E-19
 -1       403 1.31534E-02 1.03304E-02 8.05386E-19
 -1       404 1.47301E-02 1.03170E-02 9.01928E-19
 -1       405 1.63068E-02 1.03036E-02 9.98469E-19
 -1       406 1.78835E-02 1.02902E-02 1.09501E-18
 -1       407 1.94602E-02 1.02768E-02 1.19155E-18
 -1       408 2.10369E-02 1.02634E-02 1.28809E-18
 -1       409 2.26136E-02 1.02500E-02 1.38464E-18
 -1       410 2.41903E-02 1.02366E-02 1.48118E-18
 -1       411 2.57670E-02 1.02232E-02 1.57772E-18
 -1       412 2.73437E-02 1.02099E-02 1.67426E-18
 -1       413 2.89203E-02 1.01965E-02 1.77080E-18
 -1       414 3.04970E-02 1.01831E-02 1.86734E-18
 -1       415 3.20737E-02 1.01697E-02 1.96388E-18
 -1       416 3.36504E-02 1.01563E-02 2.06043E-18
 -1       417 3.52271E-02 1.01429E-02 2.15697E-18
 -1       418 3.68038E-02 1.01295E-02 2.25351E-18
 -1       419 3.83805E-02 1.01161E-02 2.35005E-18
 -1       420 3.99572E-02 1.01027E-02 2.44659E-18
 -1       421 4.15339E-02 1.00894E-02 2.54313E-18
 -1       422 4.31106E-02 1.00760E-02 2.63968E-18
 -1       423 4.46873E-02 1.00626E-02 2.73622E-18
 -1       424 4.62640E-02 1.00492E-02 2.83276E-18
 -1       425 4.78407E-02 1.00358E-02 2.92930E-18
 -1       426 4.94174E-02 1.00224E-02 3.02584E-18
 -1       427 5.09941E-02 1.00090E-02 3.12238E-18
 -1       428 5.25708E-02 9.99563E-03 3.21893E-18
 -1       429 5.41475E-02 9.98224E-03 3.31547E-18
 -1       430 5.57242E-02 9.96885E-03 3.41201E-18
 -1       431 5.73009E-02 9.95546E-03 3.50855E-18
 -1       501 1.00000E-02 1.21429E-02 6.12303E-19
 -1       502 1.15512E-02 1.21273E-02 7.07282E-19
 -1       503 1.31024E-02 1.21116E-02 8.02261E-19
 -1       504 1.46535E-02 1.20960E-02 8.97240E-19
 -1       505 1.62047E-02 1.20804E-02 9.92219E-19
 -1       506 1.77559E-02 1.20648E-02 1.08720E-18
 -1       507 1.93071E-02 1.20492E-02 1.18218E-18
 -1       508 2.08582E-02 1.20336E-02 1.27716E-18
 -1       509 2.24094E-02 1.20180E-02 1.37214E-18
 -1       510 2.39606E-02 1.20024E-02 1.46711E-18
 -1       511 2.55118E-02 1.19868E-02 1.56209E-18
 -1       512 2.70629E-02 1.19712E-02 1.65707E-18
 -1       513 2.86141E-02 1.19556E-02 1.75205E-18
 -1       514 3.01653E-02 1.19400E-02 1.84703E-18
 -1       515 3.17165E-02 1.19244E-02 1.94201E-18
 -1       516 3.32676E-02 1.19088E-02 2.03699E-18
 -1       517 3.48188E-02 1.18931E-02 2.13197E-18
 -1       518 3.63700E-02 1.18775E-02 2.22695E-18
 -1       519 3.79212E-02 1.18619E-02 2.32193E-18
 -1       520 3.94723E-02 1.18463E-02 2.41690E-18
 -1       521 4.10235E-02 1.18307E-02 2.51188E-18
 -1       522 4.25747E-02 1.18151E-02 2.60686E-18
 -1       523 4.41259E-02 1.17995E-02 2.70184E-18
 -1       524 4.56771E-02 1.17839E-02 2.79682E-18
 -1       525 4.72282E-02 1.17683E-02 2.89180E-18
 -1       526 4.87794E-02 1.17527E-02 2.98678E-18
 -1       527 5.03306E-02 1.17371E-02 3.08176E-18
 -1       528 5.18818E-02 1.17215E-02 3.17674E-18
 -1       529 5.34329E-02 1.17059E-02 3.27172E-18
 -1       530 5.49841E-02 1.16903E-02 3.36669E-18
 -1       531 5.65353E-02 1.16747E-02 3.46167E-18
 -1       601 1.00000E-02 1.39286E-02 6.12303E-19
 -1       602 1.15280E-02 1.39117E-02 7.05861E-19
 -1       603 1.30559E-02 1.38949E-02 7.99419E-19
 -1       604 1.45839E-02 1.38780E-02 8.92976E-19
 -1       605 1.61119E-02 1.38612E-02 9.86534E-19
 -1       606 1.76398E-02 1.38443E-02 1.08009E-18
 -1       607 1.91678E-02 1.38275E-02 1.17365E-18
 -1       608 2.06957E-02 1.38106E-02 1.26721E-18
 -1       609 2.22237E-02 1.37938E-02 1.36076E-18
 -1       610 2.37517E-02 1.37769E-02 1.45432E-18
 -1       611 2.52796E-02 1.37601E-02 1.54788E-18
 -1       612 2.68076E-02 1.37432E-02 1.64144E-18
 -1       613 2.83356E-02 1.37263E-02 1.73500E-18
 -1       614 2.98635E-02 1.37095E-02 1.82855E-18
 -1       615 3.13915E-02 1.36926E-02 1.92211E-18
 -1       616 3.29194E-02 1.36758E-02 2.01567E-18
 -1       617 3.44474E-02 1.36589E-02 2.10923E-18
 -1       618 3.59754E-02 1.36421E-02 2.20278E-18
 -1       619 3.75033E-02 1.36252E-02 2.29634E-18
 -1       620 3.90313E-02 1.36084E-02 2.38990E-18
 -1       621 4.05593E-02 1.35915E-02 2.48346E-18
 -1       622 4.20872E-02 1.35747E-02 2.57701E-18
 -1       623 4.36152E-02 1.35578E-02 2.67057E-18
 -1       624 4.51431E-02 1.35410E-02 2.76413E-18
 -1       625 4.66711E-02 1.35241E-02 2.85769E-18
 -1       626 4.81991E-02 1.35073E-02 2.95124E-18
 -1       627 4.97270E-02 1.34904E-02 3.04480E-18
 -1       628 5.12550E-02 1.34736E-02 3.13836E-18
 -1       629 5.27830E-02 1.34567E-02 3.23192E-18
 -1       630 5.43109E-02 1.34399E-02 3.32548E-18
 -1       631 5.58389E-02 1.34230E-02 3.41903E-18
 -1       701 1.00000E-02 1.57143E-02 6.12303E-19
 -1       702 1.15071E-02 1.56971E-02 7.04583E-19
 -1       703 1.30142E-02 1.56799E-02 7.96863E-19
 -1       704 1.45213E-02 1.56626E-02 8.89143E-19
 -1       705 1.60284E-02 1.56454E-02 9.81422E-19
 -1       706 1.75355E-02 1.56282E-02 1.07370E-18
 -1       707 1.90426E-02 1.56110E-02 1.16598E-18
 -1       708 2.05497E-02 1.55938E-02 1.25826E-18
 -1       709 2.20567E-02 1.55765E-02 1.35054E-18
 -1       710 2.35638E-02 1.55593E-02 1.44282E-18
 -1       711 2.50709E-02 1.55421E-02 1.53510E-18
 -1       712 2.65780E-02 1.55249E-02 1.62738E-18
 -1       713 2.80851E-02 1.55077E-02 1.71966E-18
 -1       714 2.95922E-02 1.54905E-02 1.81194E-18
 -1       715 3.10993E-02 1.54732E-02 1.90422E-18
 -1       716 3.26064E-02 1.54560E-02 1.99650E-18
 -1       717 3.41135E-02 1.54388E-02 2.08878E-18
 -1       718 3.56206E-02 1.54216E-02 2.18106E-18
 -1       719 3.71277E-02 1.54044E-02 2.27334E-18
 -1       720 3.86348E-02 1.53872E-02 2.36562E-18
 -1       721 4.01419E-02 1.53699E-02 2.45790E-18
 -1       722 4.16490E-02 1.53527E-02 2.55018E-18
 -1       723 4.31561E-02 1.53355E-02 2.64246E-18
 -1       724 4.46631E-02 1.53183E-02 2.73474E-18
 -1       725 4.61702E-02 1.53011E-02 2.82702E-18
 -1       726 4.76773E-02 1.52839E-02 2.91930E-18
 -1       727 4.91844E-02 1.52666E-02 3.01158E-18
 -1       728 5.06915E-02 1.52494E-02 3.10386E-18
 -1       729 5.21986E-02 1.52322E-02 3.19614E-18
 -1       730 5.37057E-02 1.52150E-02 3.28842E-18
 -1       731 5.52128E-02 1.51978E-02 3.38070E-18
 -1       801 1.00000E-02 1.75000E-02 6.12303E-19
 -1       802 1.14886E-02 1.74832E-02 7.03451E-19
 -1       803 1.29772E-02 1.74664E-02 7.94598E-19
 -1       804 1.44658E-02 1.74496E-02 8.85745E-19
 -1       805 1.59544E-02 1.74328E-02 9.76893E-19
 -1       806 1.74430E-02 1.74160E-02 1.06804E-18
 -1       807 1.89316E-02 1.73992E-02 1.15919E-18
 -1       808 2.04202E-02 1.73824E-02 1.25034E-18
 -1       809 2.19088E-02 1.73656E-02 1.34148E-18
 -1       810 2.33974E-02 1.73488E-02 1.43263E-18
 -1       811 2.48860E-02 1.73320E-02 1.52378E-18
 -1       812 2.63746E-02 1.73152E-02 1.61492E-18
 -1       813 2.78632E-02 1.72984E-02 1.70607E-18
 -1       814 2.93518E-02 1.72816E-02 1.79722E-18
 -1       815 3.08404E-02 1.72648E-02 1.88837E-18
 -1       816 3.23290E-02 1.72480E-02 1.97951E-18
 -1       817 3.38176E-02 1.72312E-02 2.07066E-18
 -1       818 3.53062E-02 1.72144E-02 2.16181E-18
 -1       819 3.67948E-02 1.71976E-02 2.25296E-18
 -1       820 3.82834E-02 1.71809E-02 2.34410E-18
 -1       821 3.97720E-02 1.71641E-02 2.43525E-18
 -1       822 4.12606E-02 1.71473E-02 2.52640E-18
 -1       823 4.27492E-02 1.71305E-02 2.61755E-18
 -1       824 4.42378E-02 1.71137E-02 2.70869E-18
 -1       825 4.57264E-02 1.70969E-02 2.79984E-18
 -1       826 4.72150E-02 1.70801E-02 2.89099E-18
 -1       827 4.87036E-02 1.70633E-02 2.98214E-18
 -1       828 5.01922E-02 1.70465E-02 3.07328E-18
 -1       829 5.16808E-02 1.70297E-02 3.16443E-18
 -1       830 5.31694E-02 1.70129E-02 3.25558E-18
 -1       831 5.46580E-02 1.69961E-02 3.34673E-18
 -1       901 1.00000E-02 1.92857E-02 6.12303E-19
 -1       902 1.14725E-02 1.92700E-02 7.02466E-19
 -1       903 1.29450E-02 1.92543E-02 7.92628E-19
 -1       904 1.44175E-02 1.92387E-02 8.82790E-19
 -1       905 1.58900E-02 1.92230E-02 9.72953E-19
 -1       906 1.73626E-02 1.92073E-02 1.06312E-18
 -1       907 1.88351E-02 1.91916E-02 1.15328E-18
 -1       908 2.03076E-02 1.91759E-02 1.24344E-18
 -1       909 2.17801E-02 1.91602E-02 1.33360E-18
 -1       910 2.32526E-02 1.91445E-02 1.42376E-18
 -1       911 2.47251E-02 1.91288E-02 1.51393E-18
 -1       912 2.61976E-02 1.91132E-02 1.60409E-18
 -1       913 2.76701E-02 1.90975E-02 1.69425E-18
 -1       914 2.91427E-02 1.90818E-02 1.78441E-18
 -1       915 3.06152E-02 1.90661E-02 1.87458E-18
 -1       916 3.20877E-02 1.90504E-02 1.96474E-18
 -1       917 3.35602E-02 1.90347E-02 2.05490E-18
 -1       918 3.50327E-02 1.90190E-02 2.14506E-18
 -1       919 3.65052E-02 1.90033E-02 2.23523E-18
 -1       920 3.79777E-02 1.89877E-02 2.32539E-18
 -1       921 3.94502E-02 1.89720E-02 2.41555E-18
 -1       922 4.09228E-02 1.89563E-02 2.50571E-18
 -1       923 4.23953E-02 1.89406E-02 2.59588E-18
 -1       924 4.38678E-02 1.89249E-02 2.68604E-18
 -1       925 4.53403E-02 1.89092E-02 2.77620E-18
 -1       926 4.68128E-02 1.88935E-02 2.86636E-18
 -1       927 4.82853E-02 1.88778E-02 2.95653E-18
 -1       928 4.97578E-02 1.88622E-02 3.04669E-18
 -1       929 5.12303E-02 1.88465E-02 3.13685E-18
 -1       930 5.27028E-02 1.88308E-02 3.22701E-18
 -1       931 5.41754E-02 1.88151E-02 3.31717E-18
 -1      1001 1.00000E-02 2.10714E-02 6.12303E-19
 -1      1002 1.14589E-02 2.10574E-02 7.01629E-19
 -1      1003 1.29177E-02 2.10435E-02 7.90956E-19
 -1      1004 1.43766E-02 2.10295E-02 8.80282E-19
 -1      1005 1.58354E-02 2.10155E-02 9.69608E-19
 -1      1006 1.72943E-02 2.10015E-02 1.05893E-18
 -1      1007 1.87531E-02 2.09875E-02 1.14826E-18
 -1      1008 2.02120E-02 2.09735E-02 1.23759E-18
 -1      1009 2.16708E-02 2.09596E-02 1.32691E-18
 -1      1010 2.31297E-02 2.09456E-02 1.41624E-18
 -1      1011 2.45886E-02 2.09316E-02 1.50557E-18
 -1      1012 2.60474E-02 2.09176E-02 1.59489E-18
 -1      1013 2.75063E-02 2.09036E-02 1.68422E-18
 -1      1014 2.89651E-02 2.08896E-02 1.77354E-18
 -1      1015 3.04240E-02 2.08757E-02 1.86287E-18
 -1      1016 3.18828E-02 2.08617E-02 1.95220E-18
 -1      1017 3.33417E-02 2.08477E-02 2.04152E-18
 -1      1018 3.48005E-02 2.08337E-02 2.13085E-18
 -1      1019 3.62594E-02 2.08197E-02 2.22017E-18
 -1      1020 3.77183E-02 2.08057E-02 2.30950E-18
 -1      1021 3.91771E-02 2.07918E-02 2.39883E-18
 -1      1022 4.06360E-02 2.07778E-02 2.48815E-18
 -1      1023 4.20948E-02 2.07638E-02 2.57748E-18
 -1      1024 4.35537E-02 2.07498E-02 2.66681E-18
 -1      1025 4.50125E-02 2.07358E-02 2.75613E-18
 -1      1026 4.64714E-02 2.07218E-02 2.84546E-18
 -1      1027 4.79302E-02 2.07078E-02 2.93478E-18
 -1      1028 4.93891E-02 2.06939E-02 3.02411E-18
 -1      1029 5.08480E-02 2.06799E-02 3.11344E-18
 -1      1030 5.23068E-02 2.06659E-02 3.20276E-18
 -1      1031 5.37657E-02 2.06519E-02 3.29209E-18
 -1      1101 1.00000E-02 2.28571E-02 6.12303E-19
 -1      1102 1.14477E-02 2.28454E-02 7.00943E-19
 -1      1103 1.28953E-02 2.28336E-02 7.89584E-19
 -1      1104 1.43430E-02 2.28218E-02 8.78224E-19
 -1      1105 1.57906E-02 2.28100E-02 9.66864E-19
 -1      1106 1.72383E-02 2.27982E-02 1.05550E-18
 -1      1107 1.86859E-02 2.27864E-02 1.14414E-18
 -1      1108 2.01336E-02 2.27747E-02 1.23278E-18
 -1      1109 2.15812E-02 2.27629E-02 1.32143E-18
 -1      1110 2.30289E-02 2.27511E-02 1.41007E-18
 -1      1111 2.44765E-02 2.27393E-02 1.49871E-18
 -1      1112 2.59242E-02 2.27275E-02 1.58735E-18
 -1      1113 2.73718E-02 2.27157E-02 1.67599E-18
 -1      1114 2.88195E-02 2.27039E-02 1.76463E-18
 -1      1115 3.02671E-02 2.26922E-02 1.85327E-18
 -1      1116 3.17148E-02 2.26804E-02 1.94191E-18
 -1      1117 3.31624E-02 2.26686E-02 2.03055E-18
 -1      1118 3.46101E-02 2.26568E-02 2.11919E-18
 -1      1119 3.60577E-02 2.26450E-02 2.20783E-18
 -1      1120 3.75054E-02 2.26332E-02 2.29647E-18
 -1      1121 3.89531E-02 2.26215E-02 2.38511E-18
 -1      1122 4.04007E-02 2.26097E-02 2.47375E-18
 -1      1123 4.18484E-02 2.25979E-02 2.56239E-18
 -1      1124 4.32960E-02 2.25861E-02 2.65103E-18
 -1      1125 4.47437E-02 2.25743E-02 2.73967E-18
 -1      1126 4.61913E-02 2.25625E-02 2.82831E-18
 -1      1127 4.76390E-02 2.25508E-02 2.91695E-18
 -1      1128 4.90866E-02 2.25390E-02 3.00559E-18
 -1      1129 5.05343E-02 2.25272E-02 3.09423E-18
 -1      1130 5.19819E-02 2.25154E-02 3.18287E-18
 -1      1131 5.34296E-02 2.25036E-02 3.27151E-18
 -1      1201 1.00000E-02 2.46429E-02 6.12303E-19
 -1      1202 1.14389E-02 2.46337E-02 7.00409E-19
 -1      1203 1.28778E-02 2.46245E-02 7.88514E-19
 -1      1204 1.43168E-02 2.46153E-02 8.76620E-19
 -1      1205 1.57557E-02 2.46061E-02 9.64725E-19
 -1      1206 1.71946E-02 2.45969E-02 1.05283E-18
 -1      1207 1.86335E-02 2.45877E-02 1.14094E-18
 -1      1208 2.00724E-02 2.45785E-02 1.22904E-18
 -1      1209 2.15114E-02 2.45694E-02 1.31715E-18
 -1      1210 2.29503E-02 2.45602E-02 1.40525E-18
 -1      1211 2.43892E-02 2.45510E-02 1.49336E-18
 -1      1212 2.58281E-02 2.45418E-02 1.58146E-18
 -1      1213 2.72670E-02 2.45326E-02 1.66957E-18
 -1      1214 2.87060E-02 2.45234E-02 1.75768E-18
 -1      1215 3.01449E-02 2.45142E-02 1.84578E-18
 -1      1216 3.15838E-02 2.45051E-02 1.93389E-18
 -1      1217 3.30227E-02 2.44959E-02 2.02199E-18
 -1      1218 3.44617E-02 2.44867E-02 2.11010E-18
 -1      1219 3.59006E-02 2.44775E-02 2.19820E-18
 -1      1220 3.73395E-02 2.44683E-02 2.28631E-18
 -1      1221 3.87784E-02 2.44591E-02 2.37441E-18
 -1      1222 4.02173E-02 2.44499E-02 2.46252E-18
 -1      1223 4.16563E-02 2.44407E-02 2.55063E-18
 -1      1224 4.30952E-02 2.44316E-02 2.63873E-18
 -1      1225 4.45341E-02 2.44224E-02 2.72684E-18
 -1      1226 4.59730E-02 2.44132E-02 2.81494E-18
 -1      1227 4.74119E-02 2.44040E-02 2.90305E-18
 -1      1228 4.88509E-02 2.43948E-02 2.99115E-18
 -1      1229 5.02898E-02 2.43856E-02 3.07926E-18
 -1      1230 5.17287E-02 2.43764E-02 3.16736E-18
 -1      1231 5.31676E-02 2.43672E-02 3.25547E-18
 -1      1301 1.00000E-02 2.64286E-02 6.12303E-19
 -1      1302 1.14327E-02 2.64223E-02 7.00026E-19
 -1      1303 1.28653E-02 2.64160E-02 7.87749E-19
 -1      1304 1.42980E-02 2.64097E-02 8.75472E-19
 -1      1305 1.57307E-02 2.64034E-02 9.63195E-19
 -1      1306 1.71634E-02 2.63971E-02 1.05092E-18
 -1      1307 1.85960E-02 2.63908E-02 1.13864E-18
 -1      1308 2.00287E-02 2.63845E-02 1.22636E-18
 -1      1309 2.14614E-02 2.63782E-02 1.31409E-18
 -1      1310 2.28941E-02 2.63720E-02 1.40181E-18
 -1      1311 2.43267E-02 2.63657E-02 1.48953E-18
 -1      1312 2.57594E-02 2.63594E-02 1.57726E-18
 -1      1313 2.71921E-02 2.63531E-02 1.66498E-18
 -1      1314 2.86248E-02 2.63468E-02 1.75270E-18
 -1      1315 3.00574E-02 2.63405E-02 1.84043E-18
 -1      1316 3.14901E-02 2.63342E-02 1.92815E-18
 -1      1317 3.29228E-02 2.63279E-02 2.01587E-18
 -1      1318 3.43555E-02 2.63216E-02 2.10360E-18
 -1      1319 3.57881E-02 2.63153E-02 2.19132E-18
 -1      1320 3.72208E-02 2.63090E-02 2.27904E-18
 -1      1321 3.86535E-02 2.63028E-02 2.36676E-18
 -1      1322 4.00861E-02 2.62965E-02 2.45449E-18
 -1      1323 4.15188E-02 2.62902E-02 2.54221E-18
 -1      1324 4.29515E-02 2.62839E-02 2.62993E-18
 -1      1325 4.43842E-02 2.62776E-02 2.71766E-18
 -1      1326 4.58168E-02 2.62713E-02 2.80538E-18
 -1      1327 4.72495E-02 2.62650E-02 2.89310E-18
 -1      1328 4.86822E-02 2.62587E-02 2.98083E-18
 -1      1329 5.01149E-02 2.62524E-02 3.06855E-18
 -1      1330 5.15475E-02 2.62461E-02 3.15627E-18
 -1      1331 5.29802E-02 2.62398E-02 3.24399E-18
 -1      1401 1.00000E-02 2.82143E-02 6.12303E-19
 -1      1402 1.14289E-02 2.82111E-02 6.99797E-19
 -1      1403 1.28578E-02 2.82079E-02 7.87290E-19
 -1      1404 1.42868E-02 2.82047E-02 8.74783E-19
 -1      1405 1.57157E-02 2.82015E-02 9.62276E-19
 -1      1406 1.71446E-02 2.81983E-02 1.04977E-18
 -1      1407 1.85735E-02 2.81951E-02 1.13726E-18
 -1      1408 2.00024E-02 2.81919E-02 1.22476E-18
 -1      1409 2.14314E-02 2.81887E-02 1.31225E-18
 -1      1410 2.28603E-02 2.81855E-02 1.39974E-18
 -1      1411 2.42892E-02 2.81823E-02 1.48724E-18
 -1      1412 2.57181E-02 2.81791E-02 1.57473E-18
 -1      1413 2.71471E-02 2.81759E-02 1.66222E-18
 -1      1414 2.85760E-02 2.81727E-02 1.74972E-18
 -1      1415 3.00049E-02 2.81696E-02 1.83721E-18
 -1      1416 3.14338E-02 2.81664E-02 1.92470E-18
 -1      1417 3.28627E-02 2.81632E-02 2.01220E-18
 -1      1418 3.42917E-02 2.81600E-02 2.09969E-18
 -1      1419 3.57206E-02 2.81568E-02 2.18718E-18
 -1      1420 3.71495E-02 2.81536E-02 2.27468E-18
 -1      1421 3.85784E-02 2.81504E-02 2.36217E-18
 -1      1422 4.00073E-02 2.81472E-02 2.44966E-18
 -1      1423 4.14363E-02 2.81440E-02 2.53716E-18
 -1      1424 4.28652E-02 2.81408E-02 2.62465E-18
 -1      1425 4.42941E-02 2.81376E-02 2.71214E-18
 -1      1426 4.57230E-02 2.81344E-02 2.79964E-18
 -1      1427 4.71520E-02 2.81312E-02 2.88713E-18
 -1      1428 4.85809E-02 2.81280E-02 2.97462E-18
 -1      1429 5.00098E-02 2.81248E-02 3.06212E-18
 -1      1430 5.14387E-02 2.81216E-02 3.14961E-18
 -1      1431 5.28676E-02 2.81184E-02 3.23710E-18
 -1      1501 1.00000E-02 3.00000E-02 6.12303E-19
 -1      1502 1.14277E-02 3.00000E-02 6.99720E-19
 -1      1503 1.28553E-02 3.00000E-02 7.87137E-19
 -1      1504 1.42830E-02 3.00000E-02 8.74553E-19
 -1      1505 1.57107E-02 3.00000E-02 9.61970E-19
 -1      1506 1.71384E-02 3.00000E-02 1.04939E-18
 -1      1507 1.85660E-02 3.00000E-02 1.13680E-18
 -1      1508 1.99937E-02 3.00000E-02 1.22422E-18
 -1      1509 2.14214E-02 3.00000E-02 1.31164E-18
 -1      1510 2.28490E-02 3.00000E-02 1.39905E-18
 -1      1511 2.42767E-02 3.00000E-02 1.48647E-18
 -1      1512 2.57044E-02 3.00000E-02 1.57389E-18
 -1      1513 2.71320E-02 3.00000E-02 1.66130E-18
 -1      1514 2.85597E-02 3.00000E-02 1.74872E-18
 -1      1515 2.99874E-02 3.00000E-02 1.83614E-18
 -1      1516 3.14150E-02 3.00000E-02 1.92355E-18
 -1      1517 3.28427E-02 3.00000E-02 2.01097E-18
 -1      1518 3.42704E-02 3.00000E-02 2.09839E-18
 -1      1519 3.56981E-02 3.00000E-02 2.18580E-18
 -1      1520 3.71257E-02 3.00000E-02 2.27322E-18
 -1      1521 3.85534E-02 3.00000E-02 2.36064E-18
 -1      1522 3.99811E-02 3.00000E-02 2.44805E-18
 -1      1523 4.14087E-02 3.00000E-02 2.53547E-18
 -1      1524 4.28364E-02 3.00000E-02 2.62289E-18
 -1      1525 4.42641E-02 3.00000E-02 2.71030E-18
 -1      1526 4.56918E-02 3.00000E-02 2.79772E-18
 -1      1527 4.71194E-02 3.00000E-02 2.88514E-18
 -1      1528 4.85471E-02 3.00000E-02 2.97255E-18
 -1      1529 4.99748E-02 3.00000E-02 3.05997E-18
 -1      1530 5.14024E-02 3.00000E-02 3.14739E-18
 -1      1531 5.28301E-02 3.00000E-02 3.23480E-18
 -3
    3C                           450                                     1
 -1         1    9    0STEEL
 -2         1         2       102       101
 -1         2    9    0STEEL
 -2         2         3       103       102
 -1         3    9    0STEEL
 -2         3         4       104       103
 -1         4    9    0STEEL
 -2         4         5       105       104
 -1         5    9    0STEEL
 -2         5         6       106       105
 -1         6    9    0STEEL
 -2         6         7       107       106
 -1         7    9    0STEEL
 -2         7         8       108       107
 -1         8    9    0STEEL
 -2         8         9       109       108
 -1         9    9    0STEEL
 -2         9        10       110       109
 -1        10    9    0STEEL
 -2        10        11       111       110
 -1        11    9    0STEEL
 -2        11        12       112       111
 -1        12    9    0STEEL
 -2        12        13       113       112
 -1        13    9    0STEEL
 -2        13        14       114       113
 -1        14    9    0STEEL
 -2        14        15       115       114
 -1        15    9    0STEEL
 -2        15        16       116       115
 -1        16    9    0STEEL
 -2        16        17       117       116
 -1        17    9    0STEEL
 -2        17        18       118       117
 -1        18    9    0STEEL
 -2        18        19       119       118
 -1        19    9    0STEEL
 -2        19        20       120       119
 -1        20    9    0STEEL
 -2        20        21       121       120
 -1        21    9    0STEEL
 -2        21        22       122       121
 -1        22    9    0STEEL
 -2        22        23       123       122
 -1        23    9    0STEEL
 -2        23        24       124       123
 -1        24    9    0STEEL
 -2        24        25       125       124
 -1        25    9    0STEEL
 -2        25        26       126       125
 -1        26    9    0STEEL
 -2        26        27       127       126
 -1        27    9    0STEEL
 -2        27        28       128       127
 -1        28    9    0STEEL
 -2        28        29       129       128
 -1        29    9    0STEEL
 -2        29        30       130       129
 -1        30    9    0STEEL
 -2        30        31       131       130
 -1       101    9    0RUBBE
 -2       101       102       202       201
 -1       102    9    0RUBBE
 -2       102       103       203       202
 -1       103    9    0RUBBE
 -2       103       104       204       203
 -1       104    9    0RUBBE
 -2       104       105       205       204
 -1       105    9    0RUBBE
 -2       105       106       206       205
 -1       106    9    0RUBBE
 -2       106       107       207       206
 -1       107    9    0RUBBE
 -2       107       108       208       207
 -1       108    9    0RUBBE
 -2       108       109       209       208
 -1       109    9    0RUBBE
 -2       109       110       210       209
 -1       110    9    0RUBBE
 -2       110       111       211       210
 -1       111    9    0RUBBE
 -2       111       112       212       211
 -1       112    9    0RUBBE
 -2       112       113       213       212
 -1       113    9    0RUBBE
 -2       113       114       214       213
 -1       114    9    0RUBBE
 -2       114       115       215       214
 -1       115    9    0RUBBE
 -2       115       116       216       215
 -1       116    9    0RUBBE
 -2       116       117       217       216
 -1       117    9    0RUBBE
 -2       117       118       218       217
 -1       118    9    0RUBBE
 -2       118       119       219       218
 -1       119    9    0RUBBE
 -2       119       120       220       219
 -1       120    9    0RUBBE
 -2       120       121       221       220
 -1       121    9    0RUBBE
 -2       121       122       222       221
 -1       122    9    0RUBBE
 -2       122       123       223       222
 -1       123    9    0RUBBE
 -2       123       124       224       223
 -1       124    9    0RUBBE
 -2       124       125       225       224
 -1       125    9    0RUBBE
 -2       125       126       226       225
 -1       126    9    0RUBBE
 -2       126       127       227       226
 -1       127    9    0RUBBE
 -2       127       128       228       227
 -1       128    9    0RUBBE
 -2       128       129       229       228
 -1       129    9    0RUBBE
 -2       129       130       230       229
 -1       130    9    0RUBBE
 -2       130       131       231       230
 -1       201    9    0RUBBE
 -2       201       202       302       301
 -1       202    9    0RUBBE
 -2       202       203       303       302
 -1       203    9    0RUBBE
 -2       203       204       304       303
 -1       204    9    0RUBBE
 -2       204       205       305       304
 -1       205    9    0RUBBE
 -2       205       206       306       305
 -1       206    9    0RUBBE
 -2       206       207       307       306
 -1       207    9    0RUBBE
 -2       207       208       308       307
 -1       208    9    0RUBBE
 -2       208       209       309       308
 -1       209    9    0RUBBE
 -2       209       210       310       309
 -1       210    9    0RUBBE
 -2       210       211       311       310
 -1       211    9    0RUBBE
 -2       211       212       312       311
 -1       212    9    0RUBBE
 -2       212       213       313       312
 -1       213    9    0RUBBE
 -2       213       214       314       313
 -1       214    9    0RUBBE
 -2       214       215       315       314
 -1       215    9    0RUBBE
 -2       215       216       316       315
 -1       216    9    0RUBBE
 -2       216       217       317       316
 -1       217    9    0RUBBE
 -2       217       218       318       317
 -1       218    9    0RUBBE
 -2       218       219       319       318
 -1       219    9    0RUBBE
 -2       219       220       320       319
 -1       220    9    0RUBBE
 -2       220       221       321       320
 -1       221    9    0RUBBE
 -2       221       222       322       321
 -1       222    9    0RUBBE
 -2       222       223       323       322
 -1       223    9    0RUBBE
 -2       223       224       324       323
 -1       224    9    0RUBBE
 -2       224       225       325       324
 -1       225    9    0RUBBE
 -2       225       226       326       325
 -1       226    9    0RUBBE
 -2       226       227       327       326
 -1       227    9    0RUBBE
 -2       227       228       328       327
 -1       228    9    0RUBBE
 -2       228       229       329       328
 -1       229    9    0RUBBE
 -2       229       230       330       329
 -1       230    9    0RUBBE
 -2       230       231       331       330
 -1       301    9    0RUBBE
 -2       301       302       402       401
 -1       302    9    0RUBBE
 -2       302       303       403       402
 -1       303    9    0RUBBE
 -2       303       304       404       403
 -1       304    9    0RUBBE
 -2       304       305       405       404
 -1       305    9    0RUBBE
 -2       305       306       406       405
 -1       306    9    0RUBBE
 -2       306       307       407       406
 -1       307    9    0RUBBE
 -2       307       308       408       407
 -1       308    9    0RUBBE
 -2       308       309       409       408
 -1       309    9    0RUBBE
 -2       309       310       410       409
 -1       310    9    0RUBBE
 -2       310       311       411       410
 -1       311    9    0RUBBE
 -2       311       312       412       411
 -1       312    9    0RUBBE
 -2       312       313       413       412
 -1       313    9    0RUBBE
 -2       313       314       414       413
 -1       314    9    0RUBBE
 -2       314       315       415       414
 -1       315    9    0RUBBE
 -2       315       316       416       415
 -1       316    9    0RUBBE
 -2       316       317       417       416
 -1       317    9    0RUBBE
 -2       317       318       418       417
 -1       318    9    0RUBBE
 -2       318       319       419       418
 -1       319    9    0RUBBE
 -2       319       320       420       419
 -1       320    9    0RUBBE
 -2       320       321       421       420
 -1       321    9    0RUBBE
 -2       321       322       422       421
 -1       322    9    0RUBBE
 -2       322       323       423       422
 -1       323    9    0RUBBE
 -2       323       324       424       423
 -1       324    9    0RUBBE
 -2       324       325       425       424
 -1       325    9    0RUBBE
 -2       325       326       426       425
 -1       326    9    0RUBBE
 -2       326       327       427       426
 -1       327    9    0RUBBE
 -2       327       328       428       427
 -1       328    9    0RUBBE
 -2       328       329       429       428
 -1       329    9    0RUBBE
 -2       329       330       430       429
 -1       330    9    0RUBBE
 -2       330       331       431       430
 -1       401    9    0RUBBE
 -2       401       402       502       501
 -1       402    9    0RUBBE
 -2       402       403       503       502
 -1       403    9    0RUBBE
 -2       403       404       504       503
 -1       404    9    0RUBBE
 -2       404       405       505       504
 -1       405    9    0RUBBE
 -2       405       406       506       505
 -1       406    9    0RUBBE
 -2       406       407       507       506
 -1       407    9    0RUBBE
 -2       407       408       508       507
 -1       408    9    0RUBBE
 -2       408       409       509       508
 -1       409    9    0RUBBE
 -2       409       410       510       509
 -1       410    9    0RUBBE
 -2       410       411       511       510
 -1       411    9    0RUBBE
 -2       411       412       512       511
 -1       412    9    0RUBBE
 -2       412       413       513       512
 -1       413    9    0RUBBE
 -2       413       414       514       513
 -1       414    9    0RUBBE
 -2       414       415       515       514
 -1       415    9    0RUBBE
 -2       415       416       516       515
 -1       416    9    0RUBBE
 -2       416       417       517       516
 -1       417    9    0RUBBE
 -2       417       418       518       517
 -1       418    9    0RUBBE
 -2       418       419       519       518
 -1       419    9    0RUBBE
 -2       419       420       520       519
 -1       420    9    0RUBBE
 -2       420       421       521       520
 -1       421    9    0RUBBE
 -2       421       422       522       521
 -1       422    9    0RUBBE
 -2       422       423       523       522
 -1       423    9    0RUBBE
 -2       423       424       524       523
 -1       424    9    0RUBBE
 -2       424       425       525       524
 -1       425    9    0RUBBE
 -2       425       426       526       525
 -1       426    9    0RUBBE
 -2       426       427       527       526
 -1       427    9    0RUBBE
 -2       427       428       528       527
 -1       428    9    0RUBBE
 -2       428       429       529       528
 -1       429    9    0RUBBE
 -2       429       430       530       529
 -1       430    9    0RUBBE
 -2       430       431       531       530
 -1       501    9    0RUBBE
 -2       501       502       602       601
 -1       502    9    0RUBBE
 -2       502       503       603       602
 -1       503    9    0RUBBE
 -2       503       504       604       603
 -1       504    9    0RUBBE
 -2       504       505       605       604
 -1       505    9    0RUBBE
 -2       505       506       606       605
 -1       506    9    0RUBBE
 -2       506       507       607       606
 -1       507    9    0RUBBE
 -2       507       508       608       607
 -1       508    9    0RUBBE
 -2       508       509       609       608
 -1       509    9    0RUBBE
 -2       509       510       610       609
 -1       510    9    0RUBBE
 -2       510       511       611       610
 -1       511    9    0RUBBE
 -2       511       512       612       611
 -1       512    9    0RUBBE
 -2       512       513       613       612
 -1       513    9    0RUBBE
 -2       513       514       614       613
 -1       514    9    0RUBBE
 -2       514       515       615       614
 -1       515    9    0RUBBE
 -2       515       516       616       615
 -1       516    9    0RUBBE
 -2       516       517       617       616
 -1       517    9    0RUBBE
 -2       517       518       618       617
 -1       518    9    0RUBBE
 -2       518       519       619       618
 -1       519    9    0RUBBE
 -2       519       520       620       619
 -1       520    9    0RUBBE
 -2       520       521       621       620
 -1       521    9    0RUBBE
 -2       521       522       622       621
 -1       522    9    0RUBBE
 -2       522       523       623       622
 -1       523    9    0RUBBE
 -2       523       524       624       623
 -1       524    9    0RUBBE
 -2       524       525       625       624
 -1       525    9    0RUBBE
 -2       525       526       626       625
 -1       526    9    0RUBBE
 -2       526       527       627       626
 -1       527    9    0RUBBE
 -2       527       528       628       627
 -1       528    9    0RUBBE
 -2       528       529       629       628
 -1       529    9    0RUBBE
 -2       529       530       630       629
 -1       530    9    0RUBBE
 -2       530       531       631       630
 -1       601    9    0RUBBE
 -2       601       602       702       701
 -1       602    9    0RUBBE
 -2       602       603       703       702
 -1       603    9    0RUBBE
 -2       603       604       704       703
 -1       604    9    0RUBBE
 -2       604       605       705       704
 -1       605    9    0RUBBE
 -2       605       606       706       705
 -1       606    9    0RUBBE
 -2       606       607       707       706
 -1       607    9    0RUBBE
 -2       607       608       708       707
 -1       608    9    0RUBBE
 -2       608       609       709       708
 -1       609    9    0RUBBE
 -2       609       610       710       709
 -1       610    9    0RUBBE
 -2       610       611       711       710
 -1       611    9    0RUBBE
 -2       611       612       712       711
 -1       612    9    0RUBBE
 -2       612       613       713       712
 -1       613    9    0RUBBE
 -2       613       614       714       713
 -1       614    9    0RUBBE
 -2       614       615       715       714
 -1       615    9    0RUBBE
 -2       615       616       716       715
 -1       616    9    0RUBBE
 -2       616       617       717       716
 -1       617    9    0RUBBE
 -2       617       618       718       717
 -1       618    9    0RUBBE
 -2       618       619       719       718
 -1       619    9    0RUBBE
 -2       619       620       720       719
 -1       620    9    0RUBBE
 -2       620       621       721       720
 -1       621    9    0RUBBE
 -2       621       622       722       721
 -1       622    9    0RUBBE
 -2       622       623       723       722
 -1       623    9    0RUBBE
 -2       623       624       724       723
 -1       624    9    0RUBBE
 -2       624       625       725       724
 -1       625    9    0RUBBE
 -2       625       626       726       725
 -1       626    9    0RUBBE
 -2       626       627       727       726
 -1       627    9    0RUBBE
 -2       627       628       728       727
 -1       628    9    0RUBBE
 -2       628       629       729       728
 -1       629    9    0RUBBE
 -2       629       630       730       729
 -1       630    9    0RUBBE
 -2       630       631       731       730
 -1       701    9    0RUBBE
 -2       701       702       802       801
 -1       702    9    0RUBBE
 -2       702       703       803       802
 -1       703    9    0RUBBE
 -2       703       704       804       803
 -1       704    9    0RUBBE
 -2       704       705       805       804
 -1       705    9    0RUBBE
 -2       705       706       806       805
 -1       706    9    0RUBBE
 -2       706       707       807       806
 -1       707    9    0RUBBE
 -2       707       708       808       807
 -1       708    9    0RUBBE
 -2       708       709       809       808
 -1       709    9    0RUBBE
 -2       709       710       810       809
 -1       710    9    0RUBBE
 -2       710       711       811       810
 -1       711    9    0RUBBE
 -2       711       712       812       811
 -1       712    9    0RUBBE
 -2       712       713       813       812
 -1       713    9    0RUBBE
 -2       713       714       814       813
 -1       714    9    0RUBBE
 -2       714       715       815       814
 -1       715    9    0RUBBE
 -2       715       716       816       815
 -1       716    9    0RUBBE
 -2       716       717       817       816
 -1       717    9    0RUBBE
 -2       717       718       818       817
 -1       718    9    0RUBBE
 -2       718       719       819       818
 -1       719    9    0RUBBE
 -2       719       720       820       819
 -1       720    9    0RUBBE
 -2       720       721       821       820
 -1       721    9    0RUBBE
 -2       721       722       822       821
 -1       722    9    0RUBBE
 -2       722       723       823       822
 -1       723    9    0RUBBE
 -2       723       724       824       823
 -1       724    9    0RUBBE
 -2       724       725       825       824
 -1       725    9    0RUBBE
 -2       725       726       826       825
 -1       726    9    0RUBBE
 -2       726       727       827       826
 -1       727    9    0RUBBE
 -2       727       728       828       827
 -1       728    9    0RUBBE
 -2       728       729       829       828
 -1       729    9    0RUBBE
 -2       729       730       830       829
 -1       730    9    0RUBBE
 -2       730       731       831       830
 -1       801    9    0RUBBE
 -2       801       802       902       901
 -1       802    9    0RUBBE
 -2       802       803       903       902
 -1       803    9    0RUBBE
 -2       803       804       904       903
 -1       804    9    0RUBBE
 -2       804       805       905       904
 -1       805    9    0RUBBE
 -2       805       806       906       905
 -1       806    9    0RUBBE
 -2       806       807       907       906
 -1       807    9    0RUBBE
 -2       807       808       908       907
 -1       808    9    0RUBBE
 -2       808       809       909       908
 -1       809    9    0RUBBE
 -2       809       810       910       909
 -1       810    9    0RUBBE
 -2       810       811       911       910
 -1       811    9    0RUBBE
 -2       811       812       912       911
 -1       812    9    0RUBBE
 -2       812       813       913       912
 -1       813    9    0RUBBE
 -2       813       814       914       913
 -1       814    9    0RUBBE
 -2       814       815       915       914
 -1       815    9    0RUBBE
 -2       815       816       916       915
 -1       816    9    0RUBBE
 -2       816       817       917       916
 -1       817    9    0RUBBE
 -2       817       818       918       917
 -1       818    9    0RUBBE
 -2       818       819       919       918
 -1       819    9    0RUBBE
 -2       819       820       920       919
 -1       820    9    0RUBBE
 -2       820       821       921       920
 -1       821    9    0RUBBE
 -2       821       822       922       921
 -1       822    9    0RUBBE
 -2       822       823       923       922
 -1       823    9    0RUBBE
 -2       823       824       924       923
 -1       824    9    0RUBBE
 -2       824       825       925       924
 -1       825    9    0RUBBE
 -2       825       826       926       925
 -1       826    9    0RUBBE
 -2       826       827       927       926
 -1       827    9    0RUBBE
 -2       827       828       928       927
 -1       828    9    0RUBBE
 -2       828       829       929       928
 -1       829    9    0RUBBE
 -2       829       830       930       929
 -1       830    9    0RUBBE
 -2       830       831       931       930
 -1       901    9    0RUBBE
 -2       901       902      1002      1001
 -1       902    9    0RUBBE
 -2       902       903      1003      1002
 -1       903    9    0RUBBE
 -2       903       904      1004      1003
 -1       904    9    0RUBBE
 -2       904       905      1005      1004
 -1       905    9    0RUBBE
 -2       905       906      1006      1005
 -1       906    9    0RUBBE
 -2       906       907      1007      1006
 -1       907    9    0RUBBE
 -2       907       908      1008      1007
 -1       908    9    0RUBBE
 -2       908       909      1009      1008
 -1       909    9    0RUBBE
 -2       909       910      1010      1009
 -1       910    9    0RUBBE
 -2       910       911      1011      1010
 -1       911    9    0RUBBE
 -2       911       912      1012      1011
 -1       912    9    0RUBBE
 -2       912       913      1013      1012
 -1       913    9    0RUBBE
 -2       913       914      1014      1013
 -1       914    9    0RUBBE
 -2       914       915      1015      1014
 -1       915    9    0RUBBE
 -2       915       916      1016      1015
 -1       916    9    0RUBBE
 -2       916       917      1017      1016
 -1       917    9    0RUBBE
 -2       917       918      1018      1017
 -1       918    9    0RUBBE
 -2       918       919      1019      1018
 -1       919    9    0RUBBE
 -2       919       920      1020      1019
 -1       920    9    0RUBBE
 -2       920       921      1021      1020
 -1       921    9    0RUBBE
 -2       921       922      1022      1021
 -1       922    9    0RUBBE
 -2       922       923      1023      1022
 -1       923    9    0RUBBE
 -2       923       924      1024      1023
 -1       924    9    0RUBBE
 -2       924       925      1025      1024
 -1       925    9    0RUBBE
 -2       925       926      1026      1025
 -1       926    9    0RUBBE
 -2       926       927      1027      1026
 -1       927    9    0RUBBE
 -2       927       928      1028      1027
 -1       928    9    0RUBBE
 -2       928       929      1029      1028
 -1       929    9    0RUBBE
 -2       929       930      1030      1029
 -1       930    9    0RUBBE
 -2       930       931      1031      1030
 -1      1001    9    0RUBBE
 -2      1001      1002      1102      1101
 -1      1002    9    0RUBBE
 -2      1002      1003      1103      1102
 -1      1003    9    0RUBBE
 -2      1003      1004      1104      1103
 -1      1004    9    0RUBBE
 -2      1004      1005      1105      1104
 -1      1005    9    0RUBBE
 -2      1005      1006      1106      1105
 -1      1006    9    0RUBBE
 -2      1006      1007      1107      1106
 -1      1007    9    0RUBBE
 -2      1007      1008      1108      1107
 -1      1008    9    0RUBBE
 -2      1008      1009      1109      1108
 -1      1009    9    0RUBBE
 -2      1009      1010      1110      1109
 -1      1010    9    0RUBBE
 -2      1010      1011      1111      1110
 -1      1011    9    0RUBBE
 -2      1011      1012      1112      1111
 -1      1012    9    0RUBBE
 -2      1012      1013      1113      1112
 -1      1013    9    0RUBBE
 -2      1013      1014      1114      1113
 -1      1014    9    0RUBBE
 -2      1014      1015      1115      1114
 -1      1015    9    0RUBBE
 -2      1015      1016      1116      1115
 -1      1016    9    0RUBBE
 -2      1016      1017      1117      1116
 -1      1017    9    0RUBBE
 -2      1017      1018      1118      1117
 -1      1018    9    0RUBBE
 -2      1018      1019      1119      1118
 -1      1019    9    0RUBBE
 -2      1019      1020      1120      1119
 -1      1020    9    0RUBBE
 -2      1020      1021      1121      1120
 -1      1021    9    0RUBBE
 -2      1021      1022      1122      1121
 -1      1022    9    0RUBBE
 -2      1022      1023      1123      1122
 -1      1023    9    0RUBBE
 -2      1023      1024      1124      1123
 -1      1024    9    0RUBBE
 -2      1024      1025      1125      1124
 -1      1025    9    0RUBBE
 -2      1025      1026      1126      1125
 -1      1026    9    0RUBBE
 -2      1026      1027      1127      1126
 -1      1027    9    0RUBBE
 -2      1027      1028      1128      1127
 -1      1028    9    0RUBBE
 -2      1028      1029      1129      1128
 -1      1029    9    0RUBBE
 -2      1029      1030      1130      1129
 -1      1030    9    0RUBBE
 -2      1030      1031      1131      1130
 -1      1101    9    0RUBBE
 -2      1101      1102      1202      1201
 -1      1102    9    0RUBBE
 -2      1102      1103      1203      1202
 -1      1103    9    0RUBBE
 -2      1103      1104      1204      1203
 -1      1104    9    0RUBBE
 -2      1104      1105      1205      1204
 -1      1105    9    0RUBBE
 -2      1105      1106      1206      1205
 -1      1106    9    0RUBBE
 -2      1106      1107      1207      1206
 -1      1107    9    0RUBBE
 -2      1107      1108      1208      1207
 -1      1108    9    0RUBBE
 -2      1108      1109      1209      1208
 -1      1109    9    0RUBBE
 -2      1109      1110      1210      1209
 -1      1110    9    0RUBBE
 -2      1110      1111      1211      1210
 -1      1111    9    0RUBBE
 -2      1111      1112      1212      1211
 -1      1112    9    0RUBBE
 -2      1112      1113      1213      1212
 -1      1113    9    0RUBBE
 -2      1113      1114      1214      1213
 -1      1114    9    0RUBBE
 -2      1114      1115      1215      1214
 -1      1115    9    0RUBBE
 -2      1115      1116      1216      1215
 -1      1116    9    0RUBBE
 -2      1116      1117      1217      1216
 -1      1117    9    0RUBBE
 -2      1117      1118      1218      1217
 -1      1118    9    0RUBBE
 -2      1118      1119      1219      1218
 -1      1119    9    0RUBBE
 -2      1119      1120      1220      1219
 -1      1120    9    0RUBBE
 -2      1120      1121      1221      1220
 -1      1121    9    0RUBBE
 -2      1121      1122      1222      1221
 -1      1122    9    0RUBBE
 -2      1122      1123      1223      1222
 -1      1123    9    0RUBBE
 -2      1123      1124      1224      1223
 -1      1124    9    0RUBBE
 -2      1124      1125      1225      1224
 -1      1125    9    0RUBBE
 -2      1125      1126      1226      1225
 -1      1126    9    0RUBBE
 -2      1126      1127      1227      1226
 -1      1127    9    0RUBBE
 -2      1127      1128      1228      1227
 -1      1128    9    0RUBBE
 -2      1128      1129      1229      1228
 -1      1129    9    0RUBBE
 -2      1129      1130      1230      1229
 -1      1130    9    0RUBBE
 -2      1130      1131      1231      1230
 -1      1201    9    0RUBBE
 -2      1201      1202      1302      1301
 -1      1202    9    0RUBBE
 -2      1202      1203      1303      1302
 -1      1203    9    0RUBBE
 -2      1203      1204      1304      1303
 -1      1204    9    0RUBBE
 -2      1204      1205      1305      1304
 -1      1205    9    0RUBBE
 -2      1205      1206      1306      1305
 -1      1206    9    0RUBBE
 -2      1206      1207      1307      1306
 -1      1207    9    0RUBBE
 -2      1207      1208      1308      1307
 -1      1208    9    0RUBBE
 -2      1208      1209      1309      1308
 -1      1209    9    0RUBBE
 -2      1209      1210      1310      1309
 -1      1210    9    0RUBBE
 -2      1210      1211      1311      1310
 -1      1211    9    0RUBBE
 -2      1211      1212      1312      1311
 -1      1212    9    0RUBBE
 -2      1212      1213      1313      1312
 -1      1213    9    0RUBBE
 -2      1213      1214      1314      1313
 -1      1214    9    0RUBBE
 -2      1214      1215      1315      1314
 -1      1215    9    0RUBBE
 -2      1215      1216      1316      1315
 -1      1216    9    0RUBBE
 -2      1216      1217      1317      1316
 -1      1217    9    0RUBBE
 -2      1217      1218      1318      1317
 -1      1218    9    0RUBBE
 -2      1218      1219      1319      1318
 -1      1219    9    0RUBBE
 -2      1219      1220      1320      1319
 -1      1220    9    0RUBBE
 -2      1220      1221      1321      1320
 -1      1221    9    0RUBBE
 -2      1221      1222      1322      1321
 -1      1222    9    0RUBBE
 -2      1222      1223      1323      1322
 -1      1223    9    0RUBBE
 -2      1223      1224      1324      1323
 -1      1224    9    0RUBBE
 -2      1224      1225      1325      1324
 -1      1225    9    0RUBBE
 -2      1225      1226      1326      1325
 -1      1226    9    0RUBBE
 -2      1226      1227      1327      1326
 -1      1227    9    0RUBBE
 -2      1227      1228      1328      1327
 -1      1228    9    0RUBBE
 -2      1228      1229      1329      1328
 -1      1229    9    0RUBBE
 -2      1229      1230      1330      1329
 -1      1230    9    0RUBBE
 -2      1230      1231      1331      1330
 -1      1301    9    0RUBBE
 -2      1301      1302      1402      1401
 -1      1302    9    0RUBBE
 -2      1302      1303      1403      1402
 -1      1303    9    0RUBBE
 -2      1303      1304      1404      1403
 -1      1304    9    0RUBBE
 -2      1304      1305      1405      1404
 -1      1305    9    0RUBBE
 -2      1305      1306      1406      1405
 -1      1306    9    0RUBBE
 -2      1306      1307      1407      1406
 -1      1307    9    0RUBBE
 -2      1307      1308      1408      1407
 -1      1308    9    0RUBBE
 -2      1308      1309      1409      1408
 -1      1309    9    0RUBBE
 -2      1309      1310      1410      1409
 -1      1310    9    0RUBBE
 -2      1310      1311      1411      1410
 -1      1311    9    0RUBBE
 -2      1311      1312      1412      1411
 -1      1312    9    0RUBBE
 -2      1312      1313      1413      1412
 -1      1313    9    0RUBBE
 -2      1313      1314      1414      1413
 -1      1314    9    0RUBBE
 -2      1314      1315      1415      1414
 -1      1315    9    0RUBBE
 -2      1315      1316      1416      1415
 -1      1316    9    0RUBBE
 -2      1316      1317      1417      1416
 -1      1317    9    0RUBBE
 -2      1317      1318      1418      1417
 -1      1318    9    0RUBBE
 -2      1318      1319      1419      1418
 -1      1319    9    0RUBBE
 -2      1319      1320      1420      1419
 -1      1320    9    0RUBBE
 -2      1320      1321      1421      1420
 -1      1321    9    0RUBBE
 -2      1321      1322      1422      1421
 -1      1322    9    0RUBBE
 -2      1322      1323      1423      1422
 -1      1323    9    0RUBBE
 -2      1323      1324      1424      1423
 -1      1324    9    0RUBBE
 -2      1324      1325      1425      1424
 -1      1325    9    0RUBBE
 -2      1325      1326      1426      1425
 -1      1326    9    0RUBBE
 -2      1326      1327      1427      1426
 -1      1327    9    0RUBBE
 -2      1327      1328      1428      1427
 -1      1328    9    0RUBBE
 -2      1328      1329      1429      1428
 -1      1329    9    0RUBBE
 -2      1329      1330      1430      1429
 -1      1330    9    0RUBBE
 -2      1330      1331      1431      1430
 -1      1401    9    0RUBBE
 -2      1401      1402      1502      1501
 -1      1402    9    0RUBBE
 -2      1402      1403      1503      1502
 -1      1403    9    0RUBBE
 -2      1403      1404      1504      1503
 -1      1404    9    0RUBBE
 -2      1404      1405      1505      1504
 -1      1405    9    0RUBBE
 -2      1405      1406      1506      1505
 -1      1406    9    0RUBBE
 -2      1406      1407      1507      1506
 -1      1407    9    0RUBBE
 -2      1407      1408      1508      1507
 -1      1408    9    0RUBBE
 -2      1408      1409      1509      1508
 -1      1409    9    0RUBBE
 -2      1409      1410      1510      1509
 -1      1410    9    0RUBBE
 -2      1410      1411      1511      1510
 -1      1411    9    0RUBBE
 -2      1411      1412      1512      1511
 -1      1412    9    0RUBBE
 -2      1412      1413      1513      1512
 -1      1413    9    0RUBBE
 -2      1413      1414      1514      1513
 -1      1414    9    0RUBBE
 -2      1414      1415      1515      1514
 -1      1415    9    0RUBBE
 -2      1415      1416      1516      1515
 -1      1416    9    0RUBBE
 -2      1416      1417      1517      1516
 -1      1417    9    0RUBBE
 -2      1417      1418      1518      1517
 -1      1418    9    0RUBBE
 -2      1418      1419      1519      1518
 -1      1419    9    0RUBBE
 -2      1419      1420      1520      1519
 -1      1420    9    0RUBBE
 -2      1420      1421      1521      1520
 -1      1421    9    0RUBBE
 -2      1421      1422      1522      1521
 -1      1422    9    0RUBBE
 -2      1422      1423      1523      1522
 -1      1423    9    0RUBBE
 -2      1423      1424      1524      1523
 -1      1424    9    0RUBBE
 -2      1424      1425      1525      1524
 -1      1425    9    0RUBBE
 -2      1425      1426      1526      1525
 -1      1426    9    0RUBBE
 -2      1426      1427      1527      1526
 -1      1427    9    0RUBBE
 -2      1427      1428      1528      1527
 -1      1428    9    0RUBBE
 -2      1428      1429      1529      1528
 -1      1429    9    0RUBBE
 -2      1429      1430      1530      1529
 -1      1430    9    0RUBBE
 -2      1430      1431      1531      1530
 -3
    1PSTEP                         1           1           1          
  100CL  101 1.00000E-01         496                     0    1           1
 -4  DISP        4    1
 -5  D1          1    2    1    0
 -5  D2          1    2    2    0
 -5  D3          1    2    3    0
 -5  ALL         1    2    0    0    1ALL
 -1         1 1.93124E-09 1.14635E-08 1.18250E-25
 -1         2 2.01259E-09 1.16258E-08 1.23231E-25
 -1         3 2.12377E-09 1.17787E-08 1.30039E-25
 -1         4 2.25740E-09 1.19251E-08 1.38222E-25
 -1         5 2.41013E-09 1.20678E-08 1.47573E-25
 -1         6 2.58041E-09 1.22099E-08 1.57999E-25
 -1         7 2.76756E-09 1.23552E-08 1.69459E-25
 -1         8 2.97136E-09 1.25076E-08 1.81937E-25
 -1         9 3.19177E-09 1.26710E-08 1.95433E-25
 -1        10 3.42888E-09 1.28496E-08 2.09952E-25
 -1        11 3.68280E-09 1.30480E-08 2.25499E-25
 -1        12 3.95360E-09 1.32707E-08 2.42080E-25
 -1        13 4.24128E-09 1.35227E-08 2.59695E-25
 -1        14 4.54571E-09 1.38091E-08 2.78335E-25
 -1        15 4.86659E-09 1.41354E-08 2.97983E-25
 -1        16 5.20336E-09 1.45073E-08 3.18603E-25
 -1        17 5.55513E-09 1.49310E-08 3.40142E-25
 -1        18 5.92061E-09 1.54127E-08 3.62521E-25
 -1        19 6.29797E-09 1.59589E-08 3.85627E-25
 -1        20 6.68476E-09 1.65764E-08 4.09310E-25
 -1        21 7.07773E-09 1.72714E-08 4.33371E-25
 -1        22 7.47266E-09 1.80502E-08 4.57553E-25
 -1        23 7.86421E-09 1.89180E-08 4.81528E-25
 -1        24 8.24573E-09 1.98785E-08 5.04889E-25
 -1        25 8.60911E-09 2.09331E-08 5.27139E-25
 -1        26 8.94474E-09 2.20790E-08 5.47689E-25
 -1        27 9.24168E-09 2.33078E-08 5.65871E-25
 -1        28 9.48838E-09 2.46011E-08 5.80976E-25
 -1        29 9.67428E-09 2.59255E-08 5.92359E-25
 -1        30 9.79366E-09 2.72234E-08 5.99669E-25
 -1        31 9.85679E-09 2.84207E-08 6.03535E-25
 -1       101 1.41336E-09 1.00860E-08 8.65404E-26
 -1       102 1.51371E-09 1.02525E-08 9.26851E-26
 -1       103 1.62948E-09 1.04043E-08 9.97737E-26
 -1       104 1.75800E-09 1.05452E-08 1.07643E-25
 -1       105 1.89713E-09 1.06794E-08 1.16162E-25
 -1       106 2.04528E-09 1.08109E-08 1.25233E-25
 -1       107 2.20131E-09 1.09440E-08 1.34787E-25
 -1       108 2.36439E-09 1.10827E-08 1.44772E-25
 -1       109 2.53391E-09 1.12313E-08 1.55152E-25
 -1       110 2.70936E-09 1.13943E-08 1.65895E-25
 -1       111 2.89029E-09 1.15763E-08 1.76973E-25
 -1       112 3.07621E-09 1.17820E-08 1.88357E-25
 -1       113 3.26659E-09 1.20167E-08 2.00015E-25
 -1       114 3.46081E-09 1.22856E-08 2.11907E-25
 -1       115 3.65814E-09 1.25946E-08 2.23989E-25
 -1       116 3.85771E-09 1.29496E-08 2.36209E-25
 -1       117 4.05851E-09 1.33571E-08 2.48504E-25
 -1       118 4.25941E-09 1.38238E-08 2.60805E-25
 -1       119 4.45912E-09 1.43568E-08 2.73033E-25
 -1       120 4.65626E-09 1.49632E-08 2.85104E-25
 -1       121 4.84937E-09 1.56501E-08 2.96928E-25
 -1       122 5.03700E-09 1.64245E-08 3.08417E-25
 -1       123 5.21781E-09 1.72925E-08 3.19488E-25
 -1       124 5.39067E-09 1.82592E-08 3.30072E-25
 -1       125 5.55482E-09 1.93276E-08 3.40123E-25
 -1       126 5.70996E-09 2.04975E-08 3.49622E-25
 -1       127 5.85618E-09 2.17642E-08 3.58576E-25
 -1       128 5.99350E-09 2.31163E-08 3.66984E-25
 -1       129 6.12031E-09 2.45329E-08 3.74749E-25
 -1       130 6.22978E-09 2.59794E-08 3.81451E-25
 -1       131 6.30897E-09 2.73673E-08 3.86300E-25
 -1       201 1.23565E-09 9.20358E-09 7.56593E-26
 -1       202 1.31206E-09 9.37620E-09 8.03379E-26
 -1       203 1.40884E-09 9.53073E-09 8.62638E-26
 -1       204 1.51877E-09 9.67160E-09 9.29949E-26
 -1       205 1.63834E-09 9.80440E-09 1.00316E-25
 -1       206 1.76549E-09 9.93377E-09 1.08102E-25
 -1       207 1.89888E-09 1.00639E-08 1.16269E-25
 -1       208 2.03755E-09 1.01989E-08 1.24760E-25
 -1       209 2.18079E-09 1.03429E-08 1.33531E-25
 -1       210 2.32805E-09 1.04998E-08 1.42547E-25
 -1       211 2.47885E-09 1.06740E-08 1.51781E-25
 -1       212 2.63275E-09 1.08698E-08 1.61204E-25
 -1       213 2.78932E-09 1.10920E-08 1.70791E-25
 -1       214 2.94808E-09 1.13455E-08 1.80512E-25
 -1       215 3.10853E-09 1.16355E-08 1.90337E-25
 -1       216 3.27012E-09 1.19675E-08 2.00230E-25
 -1       217 3.43221E-09 1.23474E-08 2.10155E-25
 -1       218 3.59415E-09 1.27813E-08 2.20071E-25
 -1       219 3.75521E-09 1.32758E-08 2.29933E-25
 -1       220 3.91466E-09 1.38374E-08 2.39696E-25
 -1       221 4.07174E-09 1.44728E-08 2.49314E-25
 -1       222 4.22576E-09 1.51890E-08 2.58744E-25
 -1       223 4.37603E-09 1.59921E-08 2.67945E-25
 -1       224 4.52195E-09 1.68883E-08 2.76880E-25
 -1       225 4.66290E-09 1.78825E-08 2.85511E-25
 -1       226 4.79807E-09 1.89782E-08 2.93787E-25
 -1       227 4.92594E-09 2.01777E-08 3.01617E-25
 -1       228 5.04307E-09 2.14813E-08 3.08789E-25
 -1       229 5.14142E-09 2.28893E-08 3.14811E-25
 -1       230 5.20164E-09 2.44056E-08 3.18498E-25
 -1       231 5.15839E-09 2.60716E-08 3.15850E-25
 -1       301 1.02000E-09 8.34085E-09 6.24546E-26
 -1       302 1.09445E-09 8.52410E-09 6.70135E-26
 -1       303 1.17964E-09 8.67907E-09 7.22298E-26
 -1       304 1.27443E-09 8.81841E-09 7.80340E-26
 -1       305 1.37656E-09 8.94850E-09 8.42875E-26
 -1       306 1.48436E-09 9.07441E-09 9.08881E-26
 -1       307 1.59663E-09 9.20046E-09 9.77624E-26
 -1       308 1.71249E-09 9.33060E-09 1.04856E-25
 -1       309 1.83127E-09 9.46864E-09 1.12129E-25
 -1       310 1.95244E-09 9.61841E-09 1.19548E-25
 -1       311 2.07556E-09 9.78381E-09 1.27087E-25
 -1       312 2.20027E-09 9.96889E-09 1.34723E-25
 -1       313 2.32622E-09 1.01779E-08 1.42435E-25
 -1       314 2.45309E-09 1.04153E-08 1.50203E-25
 -1       315 2.58055E-09 1.06858E-08 1.58008E-25
 -1       316 2.70827E-09 1.09945E-08 1.65828E-25
 -1       317 2.83594E-09 1.13466E-08 1.73646E-25
 -1       318 2.96322E-09 1.17479E-08 1.81439E-25
 -1       319 3.08979E-09 1.22041E-08 1.89189E-25
 -1       320 3.21531E-09 1.27215E-08 1.96875E-25
 -1       321 3.33948E-09 1.33065E-08 2.04477E-25
 -1       322 3.46197E-09 1.39656E-08 2.11977E-25
 -1       323 3.58240E-09 1.47053E-08 2.19352E-25
 -1       324 3.70028E-09 1.55321E-08 2.26569E-25
 -1       325 3.81477E-09 1.64526E-08 2.33580E-25
 -1       326 3.92435E-09 1.74730E-08 2.40289E-25
 -1       327 4.02611E-09 1.86000E-08 2.46520E-25
 -1       328 4.11438E-09 1.98413E-08 2.51925E-25
 -1       329 4.17824E-09 2.12087E-08 2.55835E-25
 -1       330 4.19619E-09 2.27247E-08 2.56934E-25
 -1       331 4.13267E-09 2.44382E-08 2.53045E-25
 -1       401 7.95020E-10 7.50957E-09 4.86793E-26
 -1       402 8.66730E-10 7.69467E-09 5.30702E-26
 -1       403 9.44849E-10 7.84937E-09 5.78534E-26
 -1       404 1.02794E-09 7.98591E-09 6.29408E-26
 -1       405 1.11522E-09 8.11213E-09 6.82851E-26
 -1       406 1.20581E-09 8.23344E-09 7.38319E-26
 -1       407 1.29893E-09 8.35423E-09 7.95337E-26
 -1       408 1.39394E-09 8.47834E-09 8.53512E-26
 -1       409 1.49031E-09 8.60939E-09 9.12523E-26
 -1       410 1.58763E-09 8.75093E-09 9.72112E-26
 -1       411 1.68555E-09 8.90654E-09 1.03207E-25
 -1       412 1.78378E-09 9.07989E-09 1.09221E-25
 -1       413 1.88208E-09 9.27483E-09 1.15240E-25
 -1       414 1.98026E-09 9.49541E-09 1.21252E-25
 -1       415 2.07815E-09 9.74589E-09 1.27246E-25
 -1       416 2.17560E-09 1.00308E-08 1.33213E-25
 -1       417 2.27252E-09 1.03550E-08 1.39147E-25
 -1       418 2.36882E-09 1.07236E-08 1.45043E-25
 -1       419 2.46442E-09 1.11420E-08 1.50898E-25
 -1       420 2.55930E-09 1.16158E-08 1.56707E-25
 -1       421 2.65340E-09 1.21511E-08 1.62469E-25
 -1       422 2.74663E-09 1.27542E-08 1.68177E-25
 -1       423 2.83877E-09 1.34317E-08 1.73819E-25
 -1       424 2.92936E-09 1.41905E-08 1.79365E-25
 -1       425 3.01745E-09 1.50379E-08 1.84759E-25
 -1       426 3.10122E-09 1.59821E-08 1.89889E-25
 -1       427 3.17734E-09 1.70325E-08 1.94550E-25
 -1       428 3.23997E-09 1.82008E-08 1.98384E-25
 -1       429 3.27920E-09 1.95040E-08 2.00786E-25
 -1       430 3.27944E-09 2.09681E-08 2.00801E-25
 -1       431 3.21814E-09 2.26366E-08 1.97048E-25
 -1       501 5.69570E-10 6.70991E-09 3.48749E-26
 -1       502 6.38929E-10 6.89084E-09 3.91218E-26
 -1       503 7.10644E-10 7.04192E-09 4.35129E-26
 -1       504 7.83971E-10 7.17418E-09 4.80028E-26
 -1       505 8.58529E-10 7.29532E-09 5.25680E-26
 -1       506 9.34009E-10 7.41091E-09 5.71897E-26
 -1       507 1.01006E-09 7.52535E-09 6.18460E-26
 -1       508 1.08632E-09 7.64237E-09 6.65156E-26
 -1       509 1.16247E-09 7.76538E-09 7.11785E-26
 -1       510 1.23824E-09 7.89767E-09 7.58181E-26
 -1       511 1.31341E-09 8.04250E-09 8.04203E-26
 -1       512 1.38778E-09 8.20322E-09 8.49743E-26
 -1       513 1.46124E-09 8.38329E-09 8.94722E-26
 -1       514 1.53370E-09 8.58634E-09 9.39090E-26
 -1       515 1.60513E-09 8.81620E-09 9.82825E-26
 -1       516 1.67553E-09 9.07697E-09 1.02594E-25
 -1       517 1.74498E-09 9.37297E-09 1.06845E-25
 -1       518 1.81355E-09 9.70883E-09 1.11044E-25
 -1       519 1.88140E-09 1.00895E-08 1.15199E-25
 -1       520 1.94867E-09 1.05202E-08 1.19318E-25
 -1       521 2.01552E-09 1.10066E-08 1.23411E-25
 -1       522 2.08203E-09 1.15547E-08 1.27483E-25
 -1       523 2.14815E-09 1.21709E-08 1.31532E-25
 -1       524 2.21355E-09 1.28625E-08 1.35536E-25
 -1       525 2.27740E-09 1.36371E-08 1.39446E-25
 -1       526 2.33810E-09 1.45039E-08 1.43163E-25
 -1       527 2.39277E-09 1.54735E-08 1.46510E-25
 -1       528 2.43667E-09 1.65597E-08 1.49198E-25
 -1       529 2.46256E-09 1.77803E-08 1.50784E-25
 -1       530 2.46013E-09 1.91607E-08 1.50635E-25
 -1       531 2.41642E-09 2.07366E-08 1.47958E-25
 -1       601 3.50216E-10 5.94087E-09 2.14438E-26
 -1       602 4.17280E-10 6.11318E-09 2.55502E-26
 -1       603 4.83147E-10 6.25739E-09 2.95833E-26
 -1       604 5.47758E-10 6.38326E-09 3.35394E-26
 -1       605 6.11151E-10 6.49789E-09 3.74209E-26
 -1       606 6.73340E-10 6.60660E-09 4.12288E-26
 -1       607 7.34281E-10 6.71362E-09 4.49603E-26
 -1       608 7.93871E-10 6.82253E-09 4.86090E-26
 -1       609 8.51987E-10 6.93651E-09 5.21674E-26
 -1       610 9.08508E-10 7.05859E-09 5.56282E-26
 -1       611 9.63334E-10 7.19175E-09 5.89853E-26
 -1       612 1.01640E-09 7.33898E-09 6.22346E-26
 -1       613 1.06769E-09 7.50339E-09 6.53751E-26
 -1       614 1.11723E-09 7.68822E-09 6.84082E-26
 -1       615 1.16509E-09 7.89689E-09 7.13391E-26
 -1       616 1.21142E-09 8.13305E-09 7.41758E-26
 -1       617 1.25641E-09 8.40058E-09 7.69304E-26
 -1       618 1.30030E-09 8.70365E-09 7.96177E-26
 -1       619 1.34338E-09 9.04671E-09 8.22559E-26
 -1       620 1.38599E-09 9.43460E-09 8.48646E-26
 -1       621 1.42844E-09 9.87253E-09 8.74637E-26
 -1       622 1.47101E-09 1.03662E-08 9.00704E-26
 -1       623 1.51387E-09 1.09218E-08 9.26944E-26
 -1       624 1.55694E-09 1.15465E-08 9.53317E-26
 -1       625 1.59977E-09 1.22480E-08 9.79544E-26
 -1       626 1.64132E-09 1.30358E-08 1.00498E-25
 -1       627 1.67966E-09 1.39208E-08 1.02846E-25
 -1       628 1.71172E-09 1.49168E-08 1.04809E-25
 -1       629 1.73304E-09 1.60414E-08 1.06114E-25
 -1       630 1.73773E-09 1.73171E-08 1.06402E-25
 -1       631 1.71907E-09 1.87735E-08 1.05259E-25
 -1       701 1.41945E-10 5.20083E-09 8.69135E-27
 -1       702 2.06845E-10 5.36105E-09 1.26652E-26
 -1       703 2.67355E-10 5.49556E-09 1.63702E-26
 -1       704 3.24133E-10 5.61291E-09 1.98468E-26
 -1       705 3.77614E-10 5.71943E-09 2.31214E-26
 -1       706 4.28087E-10 5.82000E-09 2.62119E-26
 -1       707 4.75726E-10 5.91854E-09 2.91288E-26
 -1       708 5.20622E-10 6.01834E-09 3.18779E-26
 -1       709 5.62816E-10 6.12237E-09 3.44614E-26
 -1       710 6.02326E-10 6.23336E-09 3.68806E-26
 -1       711 6.39175E-10 6.35399E-09 3.91369E-26
 -1       712 6.73406E-10 6.48695E-09 4.12329E-26
 -1       713 7.05099E-10 6.63498E-09 4.31734E-26
 -1       714 7.34380E-10 6.80096E-09 4.49663E-26
 -1       715 7.61432E-10 6.98791E-09 4.66227E-26
 -1       716 7.86498E-10 7.19905E-09 4.81575E-26
 -1       717 8.09887E-10 7.43783E-09 4.95896E-26
 -1       718 8.31970E-10 7.70796E-09 5.09418E-26
 -1       719 8.53180E-10 8.01346E-09 5.22405E-26
 -1       720 8.73997E-10 8.35869E-09 5.35151E-26
 -1       721 8.94925E-10 8.74844E-09 5.47966E-26
 -1       722 9.16461E-10 9.18800E-09 5.61152E-26
 -1       723 9.39039E-10 9.68326E-09 5.74976E-26
 -1       724 9.62957E-10 1.02409E-08 5.89622E-26
 -1       725 9.88283E-10 1.08686E-08 6.05129E-26
 -1       726 1.01473E-09 1.15754E-08 6.21323E-26
 -1       727 1.04154E-09 1.23720E-08 6.37738E-26
 -1       728 1.06736E-09 1.32714E-08 6.53550E-26
 -1       729 1.09025E-09 1.42897E-08 6.67563E-26
 -1       730 1.10779E-09 1.54467E-08 6.78306E-26
 -1       731 1.11760E-09 1.67668E-08 6.84309E-26
 -1       801-5.10508E-11 4.48769E-09-3.12586E-27
 -1       802 1.18376E-11 4.63303E-09 7.24817E-28
 -1       803 6.75153E-11 4.75544E-09 4.13399E-27
 -1       804 1.17309E-10 4.86231E-09 7.18286E-27
 -1       805 1.62036E-10 4.95917E-09 9.92153E-27
 -1       806 2.02229E-10 5.05033E-09 1.23826E-26
 -1       807 2.38242E-10 5.13930E-09 1.45876E-26
 -1       808 2.70315E-10 5.22905E-09 1.65515E-26
 -1       809 2.98618E-10 5.32225E-09 1.82845E-26
 -1       810 3.23286E-10 5.42133E-09 1.97949E-26
 -1       811 3.44444E-10 5.52868E-09 2.10904E-26
 -1       812 3.62229E-10 5.64665E-09 2.21794E-26
 -1       813 3.76813E-10 5.77766E-09 2.30724E-26
 -1       814 3.88410E-10 5.92421E-09 2.37824E-26
 -1       815 3.97292E-10 6.08894E-09 2.43263E-26
 -1       816 4.03797E-10 6.27467E-09 2.47246E-26
 -1       817 4.08337E-10 6.48442E-09 2.50026E-26
 -1       818 4.11397E-10 6.72145E-09 2.51900E-26
 -1       819 4.13540E-10 6.98932E-09 2.53212E-26
 -1       820 4.15400E-10 7.29192E-09 2.54351E-26
 -1       821 4.17671E-10 7.63357E-09 2.55741E-26
 -1       822 4.21088E-10 8.01908E-09 2.57833E-26
 -1       823 4.26397E-10 8.45385E-09 2.61084E-26
 -1       824 4.34324E-10 8.94407E-09 2.65938E-26
 -1       825 4.45525E-10 9.49689E-09 2.72797E-26
 -1       826 4.60543E-10 1.01207E-08 2.81992E-26
 -1       827 4.79775E-10 1.08253E-08 2.93768E-26
 -1       828 5.03473E-10 1.16227E-08 3.08278E-26
 -1       829 5.31817E-10 1.25271E-08 3.25634E-26
 -1       830 5.65105E-10 1.35555E-08 3.46016E-26
 -1       831 6.04095E-10 1.47281E-08 3.69889E-26
 -1       901-2.25219E-10 3.79893E-09-1.37902E-26
 -1       902-1.64157E-10 3.92715E-09-1.00514E-26
 -1       903-1.12751E-10 4.03547E-09-6.90379E-27
 -1       904-6.90785E-11 4.13015E-09-4.22970E-27
 -1       905-3.19721E-11 4.21590E-09-1.95766E-27
 -1       906-6.80215E-13 4.29644E-09-4.16497E-29
 -1       907 2.53053E-11 4.37481E-09 1.54945E-27
 -1       908 4.63451E-11 4.45361E-09 2.83773E-27
 -1       909 6.27118E-11 4.53516E-09 3.83986E-27
 -1       910 7.46311E-11 4.62160E-09 4.56969E-27
 -1       911 8.23128E-11 4.71497E-09 5.04004E-27
 -1       912 8.59749E-11 4.81733E-09 5.26427E-27
 -1       913 8.58641E-11 4.93074E-09 5.25749E-27
 -1       914 8.22717E-11 5.05734E-09 5.03752E-27
 -1       915 7.55483E-11 5.19942E-09 4.62585E-27
 -1       916 6.61158E-11 5.35937E-09 4.04829E-27
 -1       917 5.44761E-11 5.53981E-09 3.33559E-27
 -1       918 4.12212E-11 5.74354E-09 2.52399E-27
 -1       919 2.70381E-11 5.97365E-09 1.65555E-27
 -1       920 1.27121E-11 6.23355E-09 7.78364E-28
 -1       921-8.71956E-13 6.52702E-09-5.33902E-29
 -1       922-1.27320E-11 6.85832E-09-7.79587E-28
 -1       923-2.17933E-11 7.23228E-09-1.33441E-27
 -1       924-2.68930E-11 7.65442E-09-1.64667E-27
 -1       925-2.67831E-11 8.13116E-09-1.63994E-27
 -1       926-2.01225E-11 8.66997E-09-1.23211E-27
 -1       927-5.45093E-12 9.27966E-09-3.33762E-28
 -1       928 1.88718E-11 9.97061E-09 1.15552E-27
 -1       929 5.47788E-11 1.07551E-08 3.35412E-27
 -1       930 1.04678E-10 1.16476E-08 6.40949E-27
 -1       931 1.71715E-10 1.26648E-08 1.05142E-26
 -1      1001-3.77553E-10 3.13168E-09-2.31177E-26
 -1      1002-3.18101E-10 3.24099E-09-1.94774E-26
 -1      1003-2.70371E-10 3.33359E-09-1.65549E-26
 -1      1004-2.31931E-10 3.41462E-09-1.42012E-26
 -1      1005-2.01309E-10 3.48801E-09-1.23262E-26
 -1      1006-1.77559E-10 3.55684E-09-1.08720E-26
 -1      1007-1.60041E-10 3.62368E-09-9.79938E-27
 -1      1008-1.48297E-10 3.69070E-09-9.08026E-27
 -1      1009-1.41971E-10 3.75987E-09-8.69290E-27
 -1      1010-1.40765E-10 3.83299E-09-8.61909E-27
 -1      1011-1.44403E-10 3.91178E-09-8.84186E-27
 -1      1012-1.52603E-10 3.99796E-09-9.34395E-27
 -1      1013-1.65055E-10 4.09327E-09-1.01064E-26
 -1      1014-1.81404E-10 4.19949E-09-1.11074E-26
 -1      1015-2.01231E-10 4.31851E-09-1.23215E-26
 -1      1016-2.24044E-10 4.45236E-09-1.37183E-26
 -1      1017-2.49257E-10 4.60321E-09-1.52621E-26
 -1      1018-2.76183E-10 4.77343E-09-1.69108E-26
 -1      1019-3.04019E-10 4.96561E-09-1.86152E-26
 -1      1020-3.31836E-10 5.18264E-09-2.03185E-26
 -1      1021-3.58566E-10 5.42775E-09-2.19551E-26
 -1      1022-3.82987E-10 5.70457E-09-2.34504E-26
 -1      1023-4.03709E-10 6.01727E-09-2.47192E-26
 -1      1024-4.19156E-10 6.37058E-09-2.56651E-26
 -1      1025-4.27532E-10 6.77004E-09-2.61779E-26
 -1      1026-4.26781E-10 7.22205E-09-2.61320E-26
 -1      1027-4.14525E-10 7.73413E-09-2.53815E-26
 -1      1028-3.87967E-10 8.31506E-09-2.37554E-26
 -1      1029-3.43764E-10 8.97511E-09-2.10488E-26
 -1      1030-2.77855E-10 9.72620E-09-1.70131E-26
 -1      1031-1.85248E-10 1.05820E-08-1.13428E-26
 -1      1101-5.05547E-10 2.48276E-09-3.09548E-26
 -1      1102-4.47460E-10 2.57177E-09-2.73981E-26
 -1      1103-4.02781E-10 2.64733E-09-2.46624E-26
 -1      1104-3.68661E-10 2.71354E-09-2.25732E-26
 -1      1105-3.43371E-10 2.77351E-09-2.10247E-26
 -1      1106-3.25806E-10 2.82971E-09-1.99492E-26
 -1      1107-3.15214E-10 2.88419E-09-1.93007E-26
 -1      1108-3.11056E-10 2.93871E-09-1.90461E-26
 -1      1109-3.12913E-10 2.99486E-09-1.91598E-26
 -1      1110-3.20430E-10 3.05408E-09-1.96201E-26
 -1      1111-3.33280E-10 3.11777E-09-2.04068E-26
 -1      1112-3.51129E-10 3.18730E-09-2.14997E-26
 -1      1113-3.73617E-10 3.26408E-09-2.28767E-26
 -1      1114-4.00339E-10 3.34953E-09-2.45129E-26
 -1      1115-4.30820E-10 3.44517E-09-2.63792E-26
 -1      1116-4.64505E-10 3.55263E-09-2.84418E-26
 -1      1117-5.00740E-10 3.67364E-09-3.06605E-26
 -1      1118-5.38753E-10 3.81013E-09-3.29880E-26
 -1      1119-5.77638E-10 3.96418E-09-3.53690E-26
 -1      1120-6.16336E-10 4.13815E-09-3.77385E-26
 -1      1121-6.53613E-10 4.33465E-09-4.00210E-26
 -1      1122-6.88032E-10 4.55667E-09-4.21284E-26
 -1      1123-7.17921E-10 4.80760E-09-4.39585E-26
 -1      1124-7.41340E-10 5.09133E-09-4.53925E-26
 -1      1125-7.56021E-10 5.41238E-09-4.62914E-26
 -1      1126-7.59306E-10 5.77600E-09-4.64925E-26
 -1      1127-7.48061E-10 6.18828E-09-4.58040E-26
 -1      1128-7.18565E-10 6.65632E-09-4.39979E-26
 -1      1129-6.66367E-10 7.18835E-09-4.08018E-26
 -1      1130-5.86125E-10 7.79385E-09-3.58886E-26
 -1      1131-4.71415E-10 8.48369E-09-2.88649E-26
 -1      1201-6.07176E-10 1.84878E-09-3.71776E-26
 -1      1202-5.50181E-10 1.91641E-09-3.36878E-26
 -1      1203-5.07903E-10 1.97393E-09-3.10990E-26
 -1      1204-4.77166E-10 2.02439E-09-2.92170E-26
 -1      1205-4.56043E-10 2.07010E-09-2.79237E-26
 -1      1206-4.43299E-10 2.11291E-09-2.71434E-26
 -1      1207-4.38097E-10 2.15437E-09-2.68248E-26
 -1      1208-4.39833E-10 2.19580E-09-2.69311E-26
 -1      1209-4.48039E-10 2.23838E-09-2.74335E-26
 -1      1210-4.62318E-10 2.28323E-09-2.83079E-26
 -1      1211-4.82303E-10 2.33139E-09-2.95316E-26
 -1      1212-5.07624E-10 2.38389E-09-3.10820E-26
 -1      1213-5.37883E-10 2.44178E-09-3.29347E-26
 -1      1214-5.72633E-10 2.50615E-09-3.50625E-26
 -1      1215-6.11358E-10 2.57813E-09-3.74336E-26
 -1      1216-6.53453E-10 2.65895E-09-4.00111E-26
 -1      1217-6.98205E-10 2.74992E-09-4.27513E-26
 -1      1218-7.44775E-10 2.85248E-09-4.56028E-26
 -1      1219-7.92171E-10 2.96821E-09-4.85049E-26
 -1      1220-8.39226E-10 3.09891E-09-5.13861E-26
 -1      1221-8.84564E-10 3.24656E-09-5.41622E-26
 -1      1222-9.26571E-10 3.41343E-09-5.67342E-26
 -1      1223-9.63343E-10 3.60211E-09-5.89858E-26
 -1      1224-9.92641E-10 3.81558E-09-6.07797E-26
 -1      1225-1.01182E-09 4.05726E-09-6.19540E-26
 -1      1226-1.01775E-09 4.33116E-09-6.23169E-26
 -1      1227-1.00670E-09 4.64189E-09-6.16407E-26
 -1      1228-9.74258E-10 4.99482E-09-5.96541E-26
 -1      1229-9.15132E-10 5.39611E-09-5.60338E-26
 -1      1230-8.23018E-10 5.85289E-09-5.03937E-26
 -1      1231-6.90410E-10 6.37324E-09-4.22740E-26
 -1      1301-6.80878E-10 1.22614E-09-4.16904E-26
 -1      1302-6.24679E-10 1.27164E-09-3.82493E-26
 -1      1303-5.84130E-10 1.31039E-09-3.57665E-26
 -1      1304-5.55824E-10 1.34440E-09-3.40333E-26
 -1      1305-5.37688E-10 1.37522E-09-3.29228E-26
 -1      1306-5.28395E-10 1.40408E-09-3.23538E-26
 -1      1307-5.27045E-10 1.43200E-09-3.22711E-26
 -1      1308-5.32988E-10 1.45988E-09-3.26350E-26
 -1      1309-5.45722E-10 1.48851E-09-3.34147E-26
 -1      1310-5.64821E-10 1.51861E-09-3.45841E-26
 -1      1311-5.89889E-10 1.55090E-09-3.61191E-26
 -1      1312-6.20531E-10 1.58607E-09-3.79953E-26
 -1      1313-6.56321E-10 1.62482E-09-4.01868E-26
 -1      1314-6.96786E-10 1.66787E-09-4.26644E-26
 -1      1315-7.41376E-10 1.71598E-09-4.53947E-26
 -1      1316-7.89452E-10 1.76996E-09-4.83384E-26
 -1      1317-8.40258E-10 1.83071E-09-5.14493E-26
 -1      1318-8.92904E-10 1.89918E-09-5.46728E-26
 -1      1319-9.46332E-10 1.97644E-09-5.79442E-26
 -1      1320-9.99293E-10 2.06368E-09-6.11870E-26
 -1      1321-1.05031E-09 2.16226E-09-6.43108E-26
 -1      1322-1.09763E-09 2.27369E-09-6.72082E-26
 -1      1323-1.13918E-09 2.39971E-09-6.97523E-26
 -1      1324-1.17250E-09 2.54235E-09-7.17926E-26
 -1      1325-1.19467E-09 2.70391E-09-7.31501E-26
 -1      1326-1.20222E-09 2.88708E-09-7.36123E-26
 -1      1327-1.19101E-09 3.09496E-09-7.29260E-26
 -1      1328-1.15612E-09 3.33114E-09-7.07896E-26
 -1      1329-1.09168E-09 3.59974E-09-6.68439E-26
 -1      1330-9.90716E-10 3.90549E-09-6.06619E-26
 -1      1331-8.44954E-10 4.25380E-09-5.17368E-26
 -1      1401-7.25541E-10 6.11151E-10-4.44251E-26
 -1      1402-6.69828E-10 6.34022E-10-4.10138E-26
 -1      1403-6.30322E-10 6.53515E-10-3.85948E-26
 -1      1404-6.03479E-10 6.70632E-10-3.69512E-26
 -1      1405-5.87140E-10 6.86146E-10-3.59508E-26
 -1      1406-5.79921E-10 7.00669E-10-3.55087E-26
 -1      1407-5.80883E-10 7.14718E-10-3.55676E-26
 -1      1408-5.89351E-10 7.28734E-10-3.60861E-26
 -1      1409-6.04799E-10 7.43116E-10-3.70321E-26
 -1      1410-6.26786E-10 7.58232E-10-3.83783E-26
 -1      1411-6.54899E-10 7.74434E-10-4.00996E-26
 -1      1412-6.88726E-10 7.92069E-10-4.21709E-26
 -1      1413-7.27829E-10 8.11488E-10-4.45652E-26
 -1      1414-7.71714E-10 8.33053E-10-4.72523E-26
 -1      1415-8.19814E-10 8.57145E-10-5.01975E-26
 -1      1416-8.71468E-10 8.84173E-10-5.33603E-26
 -1      1417-9.25894E-10 9.14577E-10-5.66928E-26
 -1      1418-9.82169E-10 9.48842E-10-6.01385E-26
 -1      1419-1.03920E-09 9.87503E-10-6.36303E-26
 -1      1420-1.09568E-09 1.03116E-09-6.70886E-26
 -1      1421-1.15007E-09 1.08049E-09-7.04189E-26
 -1      1422-1.20053E-09 1.13626E-09-7.35088E-26
 -1      1423-1.24489E-09 1.19935E-09-7.62250E-26
 -1      1424-1.28055E-09 1.27077E-09-7.84087E-26
 -1      1425-1.30443E-09 1.35169E-09-7.98708E-26
 -1      1426-1.31285E-09 1.44344E-09-8.03861E-26
 -1      1427-1.30142E-09 1.54760E-09-7.96864E-26
 -1      1428-1.26493E-09 1.66595E-09-7.74518E-26
 -1      1429-1.19716E-09 1.80057E-09-7.33022E-26
 -1      1430-1.09074E-09 1.95381E-09-6.67862E-26
 -1      1431-9.36938E-10 2.12839E-09-5.73690E-26
 -1      1501-7.40503E-10 0.00000E+00-4.53412E-26
 -1      1502-6.84952E-10 0.00000E+00-4.19398E-26
 -1      1503-6.45795E-10 0.00000E+00-3.95423E-26
 -1      1504-6.19441E-10 0.00000E+00-3.79286E-26
 -1      1505-6.03701E-10 0.00000E+00-3.69648E-26
 -1      1506-5.97174E-10 0.00000E+00-3.65651E-26
 -1      1507-5.98907E-10 0.00000E+00-3.66713E-26
 -1      1508-6.08216E-10 0.00000E+00-3.72413E-26
 -1      1509-6.24570E-10 0.00000E+00-3.82426E-26
 -1      1510-6.47518E-10 0.00000E+00-3.96477E-26
 -1      1511-6.76645E-10 0.00000E+00-4.14312E-26
 -1      1512-7.11534E-10 0.00000E+00-4.35675E-26
 -1      1513-7.51740E-10 0.00000E+00-4.60292E-26
 -1      1514-7.96763E-10 0.00000E+00-4.87861E-26
 -1      1515-8.46032E-10 0.00000E+00-5.18028E-26
 -1      1516-8.98877E-10 0.00000E+00-5.50385E-26
 -1      1517-9.54507E-10 0.00000E+00-5.84448E-26
 -1      1518-1.01199E-09 0.00000E+00-6.19644E-26
 -1      1519-1.07021E-09 0.00000E+00-6.55295E-26
 -1      1520-1.12786E-09 0.00000E+00-6.90593E-26
 -1      1521-1.18337E-09 0.00000E+00-7.24581E-26
 -1      1522-1.23487E-09 0.00000E+00-7.56117E-26
 -1      1523-1.28016E-09 0.00000E+00-7.83847E-26
 -1      1524-1.31659E-09 0.00000E+00-8.06154E-26
 -1      1525-1.34103E-09 0.00000E+00-8.21115E-26
 -1      1526-1.34971E-09 0.00000E+00-8.26435E-26
 -1      1527-1.33819E-09 0.00000E+00-8.19380E-26
 -1      1528-1.30114E-09 0.00000E+00-7.96694E-26
 -1      1529-1.23224E-09 0.00000E+00-7.54504E-26
 -1      1530-1.12398E-09 0.00000E+00-6.88216E-26
 -1      1531-9.67476E-10 0.00000E+00-5.92389E-26
 -3
    1PSTEP                         2           1           1          
  100CL  101 1.00000E-01         496                     0    1           1
 -4  STRESS      6    1
 -5  SXX         1    4    1    1
 -5  SYY         1    4    2    2
 -5  SZZ         1    4    3    3
 -5  SXY         1    4    1    2
 -5  SYZ         1    4    2    3
 -5  SZX         1    4    3    1
 -1         1 3.57520E+03-4.63186E+04 2.56922E+04-4.76523E+02-3.35846E-10-2.19458E-11
 -1         2 3.72200E+03-4.74200E+04 2.13158E+04-4.00015E+02-3.12066E-10-1.66666E-11
 -1         3 6.41352E+03-4.71762E+04 1.95857E+04-6.96275E+02 2.29264E-10 1.32764E-11
 -1         4 8.64045E+03-4.70340E+04 1.85570E+04-1.01230E+03 1.94513E-10 1.67798E-11
 -1         5 1.07322E+04-4.68942E+04 1.80601E+04-1.31863E+03 1.99013E-10 4.89104E-12
 -1         6 1.28268E+04-4.67159E+04 1.79770E+04-1.59735E+03-1.22752E-10 8.19696E-12
 -1         7 1.49796E+04-4.64886E+04 1.82211E+04-1.84184E+03 3.05549E-10-1.04179E-11
 -1         8 1.72101E+04-4.62127E+04 1.87283E+04-2.05121E+03-2.28011E-10 1.12651E-12
 -1         9 1.95218E+04-4.58926E+04 1.94500E+04-2.22610E+03 9.22485E-11-5.74123E-11
 -1        10 2.19095E+04-4.55335E+04 2.03485E+04-2.36686E+03 6.82803E-11 7.89823E-12
 -1        11 2.43622E+04-4.51408E+04 2.13931E+04-2.47269E+03 9.82872E-11 2.26314E-11
 -1        12 2.68640E+04-4.47197E+04 2.25575E+04-2.54132E+03 7.65830E-11 1.31885E-11
 -1        13 2.93937E+04-4.42759E+04 2.38175E+04-2.56885E+03 8.34025E-11 5.38737E-11
 -1        14 3.19236E+04-4.38160E+04 2.51494E+04-2.54968E+03-1.66650E-10-1.20065E-10
 -1        15 3.44178E+04-4.33477E+04 2.65282E+04-2.47645E+03 1.05407E-10 3.79358E-11
 -1        16 3.68306E+04-4.28812E+04 2.79262E+04-2.33996E+03 1.21132E-10-5.57298E-11
 -1        17 3.91045E+04-4.24292E+04 2.93112E+04-2.12917E+03 2.21502E-10 8.01662E-11
 -1        18 4.11669E+04-4.20083E+04 3.06456E+04-1.83120E+03-9.75702E-11-6.98843E-11
 -1        19 4.29282E+04-4.16398E+04 3.18842E+04-1.43153E+03 7.91237E-11 5.89834E-11
 -1        20 4.42777E+04-4.13504E+04 3.29727E+04-9.14536E+02-1.40687E-10-1.24555E-10
 -1        21 4.50815E+04-4.11729E+04 3.38464E+04-2.64455E+02-1.08019E-10 4.59637E-11
 -1        22 4.51797E+04-4.11461E+04 3.44290E+04 5.32411E+02-6.46552E-11-4.71897E-11
 -1        23 4.43862E+04-4.13126E+04 3.46325E+04 1.48377E+03-1.36653E-11 1.23567E-11
 -1        24 4.24938E+04-4.17134E+04 3.43605E+04 2.58381E+03-1.82707E-10-7.93386E-11
 -1        25 3.92882E+04-4.23743E+04 3.35161E+04 3.79932E+03 2.70012E-10 5.62234E-11
 -1        26 3.45824E+04-4.32763E+04 3.20213E+04 5.04339E+03 4.54425E-11 1.44800E-10
 -1        27 2.82918E+04-4.42936E+04 2.98596E+04 6.12490E+03 7.05198E-11-8.26075E-13
 -1        28 2.05894E+04-4.50621E+04 2.71642E+04 6.65075E+03 1.81851E-10 5.72793E-11
 -1        29 1.22257E+04-4.47125E+04 2.44002E+04 5.84691E+03-1.68353E-10-6.34722E-11
 -1        30 5.41079E+03-4.12874E+04 2.28162E+04 2.76161E+03 6.59240E-12 6.49579E-11
 -1        31 4.84722E+03-3.33913E+04 2.42933E+04 6.89262E+02-3.97482E-11 3.85144E-11
 -1       101 1.42422E+03-4.96003E+04 1.13118E+04-1.33249E+02 2.13879E-10-2.80182E-11
 -1       102 1.62340E+03-4.97384E+04 9.53854E+03-5.42289E+02 2.43285E-10 5.83208E-12
 -1       103 2.71621E+03-4.96318E+04 8.68743E+03-1.19292E+03-1.36284E-10-3.16117E-11
 -1       104 3.63969E+03-4.96637E+04 8.14629E+03-1.76448E+03-1.88850E-10 1.82088E-11
 -1       105 4.41902E+03-4.97838E+04 7.79550E+03-2.26047E+03-1.71578E-10-3.67784E-11
 -1       106 5.08760E+03-4.99624E+04 7.56859E+03-2.68729E+03 4.32354E-11 1.45101E-11
 -1       107 5.67501E+03-5.01820E+04 7.42629E+03-3.05091E+03-1.15224E-10-5.42186E-11
 -1       108 6.20154E+03-5.04335E+04 7.34328E+03-3.35515E+03-6.86733E-11-9.42598E-12
 -1       109 6.67854E+03-5.07130E+04 7.30162E+03-3.60182E+03-1.04666E-11 1.73697E-11
 -1       110 7.11012E+03-5.10199E+04 7.28750E+03-3.79071E+03-7.82781E-11-1.51363E-11
 -1       111 7.49480E+03-5.13552E+04 7.28939E+03-3.91945E+03-1.15121E-10-2.08929E-11
 -1       112 7.82684E+03-5.17212E+04 7.29712E+03-3.98356E+03-3.82153E-11-3.31126E-11
 -1       113 8.09728E+03-5.21207E+04 7.30130E+03-3.97635E+03 3.15604E-11-2.07648E-11
 -1       114 8.29479E+03-5.25565E+04 7.29305E+03-3.88900E+03 1.29495E-11 3.40954E-11
 -1       115 8.40632E+03-5.30312E+04 7.26394E+03-3.71051E+03-1.37987E-10-5.14542E-11
 -1       116 8.41793E+03-5.35469E+04 7.20599E+03-3.42782E+03 3.03434E-11 1.84639E-11
 -1       117 8.31568E+03-5.41044E+04 7.11194E+03-3.02588E+03-1.86310E-11-1.12870E-11
 -1       118 8.08678E+03-5.47030E+04 6.97563E+03-2.48798E+03-4.19891E-11 3.58611E-12
 -1       119 7.72125E+03-5.53389E+04 6.79263E+03-1.79618E+03-8.63649E-12-1.02833E-11
 -1       120 7.21405E+03-5.60045E+04 6.56119E+03-9.32232E+02 5.09030E-11 1.26184E-11
 -1       121 6.56789E+03-5.66854E+04 6.28345E+03 1.20909E+02 1.05736E-10 1.03756E-11
 -1       122 5.79677E+03-5.73582E+04 5.96717E+03 1.37660E+03-3.37944E-11-1.98718E-11
 -1       123 4.92996E+03-5.79849E+04 5.62790E+03 2.84045E+03 7.96979E-11-1.61592E-11
 -1       124 4.01579E+03-5.85059E+04 5.29147E+03 4.50375E+03 1.81246E-11-9.76503E-14
 -1       125 3.12316E+03-5.88282E+04 4.99663E+03 6.33302E+03-1.15175E-10-2.86274E-12
 -1       126 2.33630E+03-5.88055E+04 4.79691E+03 8.25320E+03 2.04574E-11-1.77703E-11
 -1       127 1.73229E+03-5.82058E+04 4.75962E+03 1.01206E+04 9.05460E-11-1.94109E-11
 -1       128 1.32042E+03-5.66500E+04 4.95824E+03 1.16757E+04-1.79308E-10-1.94891E-11
 -1       129 9.12373E+02-5.34943E+04 5.45318E+03 1.24421E+04 2.89562E-11-1.55440E-11
 -1       130 2.03316E+02-4.77620E+04 6.33970E+03 1.09433E+04-4.67322E-12-3.07337E-11
 -1       131 1.61890E+03-3.42734E+04 8.66161E+03 8.11962E+03 1.28395E-10 1.20885E-11
 -1       201 5.93373E+02-4.80451E+04 7.58349E+03-2.82912E+02 4.17981E-11-1.56052E-11
 -1       202 1.16433E+03-4.75803E+04 6.61753E+03-8.36277E+02-3.09811E-11 8.38494E-13
 -1       203 2.14708E+03-4.74463E+04 6.07900E+03-1.62560E+03 2.84572E-11 1.21941E-12
 -1       204 2.80228E+03-4.74795E+04 5.71931E+03-2.30991E+03-3.73455E-11-7.60733E-12
 -1       205 3.29096E+03-4.75895E+04 5.47577E+03-2.89096E+03-5.89176E-11 2.65904E-13
 -1       206 3.67960E+03-4.77346E+04 5.31051E+03-3.39041E+03-4.00690E-11-1.37716E-11
 -1       207 4.00101E+03-4.78964E+04 5.19929E+03-3.81791E+03 6.66851E-11 2.98804E-11
 -1       208 4.27406E+03-4.80684E+04 5.12605E+03-4.17786E+03-6.03251E-11-3.51429E-12
 -1       209 4.50979E+03-4.82505E+04 5.07958E+03-4.47118E+03 3.92750E-11 8.13369E-12
 -1       210 4.71416E+03-4.84458E+04 5.05170E+03-4.69622E+03-8.30247E-12-1.51230E-13
 -1       211 4.88958E+03-4.86596E+04 5.03605E+03-4.84906E+03 5.67739E-11 9.74701E-12
 -1       212 5.03594E+03-4.88981E+04 5.02746E+03-4.92361E+03-3.49892E-12 8.09699E-12
 -1       213 5.15131E+03-4.91686E+04 5.02149E+03-4.91164E+03-5.94321E-11 5.45914E-12
 -1       214 5.23243E+03-4.94788E+04 5.01415E+03-4.80277E+03 3.63415E-11-3.75939E-12
 -1       215 5.27523E+03-4.98368E+04 5.00178E+03-4.58457E+03-4.78302E-11-3.37699E-12
 -1       216 5.27519E+03-5.02513E+04 4.98092E+03-4.24265E+03-2.26845E-11-1.53426E-11
 -1       217 5.22777E+03-5.07309E+04 4.94837E+03-3.76090E+03 4.30560E-11 2.91061E-11
 -1       218 5.12889E+03-5.12840E+04 4.90114E+03-3.12190E+03-3.09150E-11-1.50985E-11
 -1       219 4.97550E+03-5.19180E+04 4.83665E+03-2.30766E+03 3.95922E-11 7.82514E-12
 -1       220 4.76609E+03-5.26380E+04 4.75289E+03-1.30069E+03 4.55372E-11-9.19599E-12
 -1       221 4.50138E+03-5.34443E+04 4.64872E+03-8.57295E+01 1.00124E-10 2.27605E-11
 -1       222 4.18468E+03-5.43289E+04 4.52435E+03 1.34767E+03-1.13150E-10 1.85348E-12
 -1       223 3.82185E+03-5.52692E+04 4.38194E+03 3.00138E+03 5.68282E-11 9.06198E-12
 -1       224 3.41995E+03-5.62167E+04 4.22658E+03 4.86332E+03 1.40161E-10 3.86992E-11
 -1       225 2.98298E+03-5.70787E+04 4.06751E+03 6.90011E+03 6.41440E-11-9.59123E-12
 -1       226 2.50147E+03-5.76855E+04 3.91999E+03 9.04764E+03 2.66735E-11 1.45147E-12
 -1       227 1.92850E+03-5.77315E+04 3.80788E+03 1.12004E+04 7.17969E-11 1.01842E-11
 -1       228 1.12279E+03-5.66614E+04 3.76728E+03 1.32041E+04-5.28801E-11 1.86355E-11
 -1       229-2.96594E+02-5.34481E+04 3.84980E+03 1.48520E+04 3.45039E-11-2.82250E-12
 -1       230-3.84769E+03-4.57563E+04 4.10581E+03 1.60489E+04-4.72205E-11 2.77073E-11
 -1       231-5.50667E+03-3.14406E+04 5.04715E+03 1.52356E+04 5.76457E-12-4.95742E-11
 -1       301 4.34222E+02-4.68330E+04 5.54080E+03-5.52323E+02 3.01358E-11-7.95846E-13
 -1       302 7.37035E+02-4.64587E+04 4.84639E+03-9.87360E+02 3.72146E-11 1.00868E-11
 -1       303 1.33006E+03-4.64179E+04 4.41574E+03-1.81416E+03-4.63958E-11-8.90598E-13
 -1       304 1.81616E+03-4.65153E+04 4.13092E+03-2.47078E+03-9.07570E-12-3.39247E-12
 -1       305 2.18047E+03-4.66825E+04 3.93408E+03-3.03240E+03 5.88462E-11 6.16938E-12
 -1       306 2.45673E+03-4.68849E+04 3.79446E+03-3.51541E+03-4.34350E-12-1.17828E-11
 -1       307 2.66930E+03-4.71072E+04 3.69305E+03-3.92937E+03-3.71746E-11-1.77055E-11
 -1       308 2.83400E+03-4.73440E+04 3.61732E+03-4.27800E+03-3.02753E-11 1.41176E-12
 -1       309 2.96096E+03-4.75961E+04 3.55862E+03-4.56160E+03-2.92126E-11-4.78169E-12
 -1       310 3.05651E+03-4.78675E+04 3.51065E+03-4.77794E+03-1.78287E-11-1.58931E-11
 -1       311 3.12429E+03-4.81646E+04 3.46856E+03-4.92273E+03 1.62826E-11-5.44940E-12
 -1       312 3.16605E+03-4.84949E+04 3.42849E+03-4.98975E+03 8.49880E-11 7.70864E-12
 -1       313 3.18217E+03-4.88668E+04 3.38715E+03-4.97099E+03-2.58413E-11-9.19387E-12
 -1       314 3.17209E+03-4.92894E+04 3.34167E+03-4.85664E+03 3.64377E-11 5.10408E-12
 -1       315 3.13472E+03-4.97725E+04 3.28946E+03-4.63520E+03-5.95999E-11 3.44965E-12
 -1       316 3.06872E+03-5.03258E+04 3.22817E+03-4.29354E+03 1.81828E-11 7.68419E-12
 -1       317 2.97277E+03-5.09591E+04 3.15566E+03-3.81723E+03 9.77071E-12-1.40646E-11
 -1       318 2.84585E+03-5.16816E+04 3.07006E+03-3.19079E+03-4.37090E-11-9.88117E-12
 -1       319 2.68737E+03-5.25007E+04 2.96984E+03-2.39836E+03-5.43186E-11-1.67739E-11
 -1       320 2.49719E+03-5.34214E+04 2.85393E+03-1.42450E+03 3.91916E-11 1.59267E-11
 -1       321 2.27540E+03-5.44429E+04 2.72190E+03-2.55408E+02 5.16266E-11-1.27281E-11
 -1       322 2.02148E+03-5.55558E+04 2.57423E+03 1.11938E+03 6.62911E-11 1.42978E-11
 -1       323 1.73250E+03-5.67359E+04 2.41257E+03 2.70487E+03-1.45012E-10-3.38573E-11
 -1       324 1.39931E+03-5.79349E+04 2.24015E+03 4.49802E+03-3.11590E-11-1.00382E-11
 -1       325 9.99379E+02-5.90657E+04 2.06214E+03 6.48527E+03 1.60575E-11 2.05007E-11
 -1       326 4.82916E+02-5.99784E+04 1.88607E+03 8.64146E+03 4.97839E-11 1.14524E-11
 -1       327-2.53348E+02-6.04205E+04 1.72196E+03 1.09341E+04-2.56774E-11-1.52960E-12
 -1       328-1.41653E+03-5.99704E+04 1.58182E+03 1.33427E+04 1.81295E-10 5.68905E-12
 -1       329-3.43015E+03-5.79072E+04 1.47741E+03 1.59325E+04 4.23576E-11 6.36440E-12
 -1       330-6.93746E+03-5.29757E+04 1.43521E+03 1.90805E+04 4.01913E-11-2.27598E-11
 -1       331-9.02480E+03-4.82625E+04 1.38332E+03 2.09619E+04-5.22062E-11 4.85323E-11
 -1       401 2.55817E+02-4.52953E+04 3.43506E+03-5.71931E+02-9.65978E-11 9.23779E-12
 -1       402 4.13314E+02-4.53043E+04 2.99069E+03-1.05227E+03-6.25353E-11-6.12815E-12
 -1       403 7.38227E+02-4.53698E+04 2.71710E+03-1.89690E+03 6.26532E-11 4.36946E-12
 -1       404 9.88142E+02-4.55422E+04 2.52227E+03-2.55167E+03-1.48390E-10-1.58369E-11
 -1       405 1.18367E+03-4.57702E+04 2.38088E+03-3.09225E+03 9.88616E-12-3.77434E-12
 -1       406 1.32538E+03-4.60305E+04 2.27346E+03-3.55233E+03-1.40589E-11-6.47336E-12
 -1       407 1.42106E+03-4.63124E+04 2.18762E+03-3.94456E+03 5.69010E-14-3.73199E-12
 -1       408 1.47842E+03-4.66126E+04 2.11507E+03-4.27392E+03-4.99391E-12-7.38866E-13
 -1       409 1.50372E+03-4.69333E+04 2.04999E+03-4.54101E+03-2.94529E-11-1.50201E-11
 -1       410 1.50165E+03-4.72794E+04 1.98813E+03-4.74363E+03 3.82068E-11-5.39438E-12
 -1       411 1.47562E+03-4.76582E+04 1.92621E+03-4.87753E+03-5.61615E-11-3.42465E-12
 -1       412 1.42796E+03-4.80783E+04 1.86162E+03-4.93667E+03-4.62237E-12 1.55674E-11
 -1       413 1.36029E+03-4.85491E+04 1.79214E+03-4.91343E+03-2.00255E-11-1.18694E-11
 -1       414 1.27368E+03-4.90809E+04 1.71588E+03-4.79864E+03 1.21833E-11 6.69333E-12
 -1       415 1.16889E+03-4.96843E+04 1.63115E+03-4.58170E+03 8.22845E-11 1.54988E-11
 -1       416 1.04657E+03-5.03704E+04 1.53643E+03-4.25064E+03-1.18563E-11-2.05651E-11
 -1       417 9.07306E+02-5.11495E+04 1.43041E+03-3.79233E+03-1.39599E-11 1.75415E-11
 -1       418 7.51678E+02-5.20317E+04 1.31198E+03-3.19266E+03-3.17436E-11-1.46035E-11
 -1       419 5.80124E+02-5.30250E+04 1.18027E+03-2.43696E+03 7.72360E-12 3.65097E-12
 -1       420 3.92555E+02-5.41344E+04 1.03471E+03-1.51042E+03 4.62349E-11 9.58853E-12
 -1       421 1.87578E+02-5.53596E+04 8.75158E+02-3.98747E+02 1.12022E-11 3.06119E-12
 -1       422-3.89510E+01-5.66919E+04 7.01920E+02 9.11208E+02 5.00780E-11-1.19496E-11
 -1       423-2.96456E+02-5.81092E+04 5.15869E+02 2.43083E+03 4.24157E-12 2.08682E-11
 -1       424-6.03925E+02-5.95691E+04 3.18463E+02 4.16964E+03-2.06346E-11-1.14216E-11
 -1       425-9.96977E+02-6.09983E+04 1.11693E+02 6.13657E+03 1.59788E-12 6.52062E-12
 -1       426-1.53926E+03-6.22774E+04-1.02191E+02 8.34448E+03-5.55083E-11-1.54695E-11
 -1       427-2.34018E+03-6.32193E+04-3.21298E+02 1.08222E+04 6.63736E-11-2.42400E-12
 -1       428-3.58061E+03-6.35402E+04-5.45315E+02 1.36437E+04-4.55488E-11 1.09910E-11
 -1       429-5.52948E+03-6.28313E+04-7.76584E+02 1.69931E+04 7.73244E-11-1.03843E-11
 -1       430-8.54030E+03-6.06018E+04-1.02604E+03 2.13039E+04 4.21180E-11-2.52438E-11
 -1       431-1.05193E+04-6.03715E+04-1.47018E+03 2.40401E+04-2.18338E-11 2.97008E-11
 -1       501 1.01342E+02-4.37791E+04 1.32436E+03-5.58968E+02-5.04330E-11-5.46748E-11
 -1       502 1.30341E+02-4.40561E+04 1.13701E+03-1.03492E+03 9.00903E-11 1.93060E-11
 -1       503 2.19429E+02-4.42994E+04 1.01571E+03-1.88196E+03 1.28024E-11 1.09247E-11
 -1       504 2.70646E+02-4.45675E+04 9.21198E+02-2.53347E+03 1.51475E-10 4.16214E-12
 -1       505 2.96523E+02-4.48662E+04 8.42462E+02-3.05959E+03-9.24087E-11-1.50028E-11
 -1       506 2.98246E+02-4.51880E+04 7.73082E+02-3.49799E+03 1.26810E-10 1.72780E-11
 -1       507 2.74475E+02-4.55297E+04 7.08051E+02-3.86700E+03-7.24919E-11 3.49064E-12
 -1       508 2.26019E+02-4.58919E+04 6.43729E+02-4.17429E+03-4.60572E-11-7.23381E-12
 -1       509 1.54776E+02-4.62786E+04 5.77398E+02-4.42189E+03 4.80604E-11 1.58992E-11
 -1       510 6.30102E+01-4.66963E+04 5.06969E+02-4.60841E+03-1.52036E-11-3.58656E-12
 -1       511-4.70170E+01-4.71532E+04 4.30772E+02-4.73015E+03-3.64563E-11-1.64406E-11
 -1       512-1.73174E+02-4.76587E+04 3.47421E+02-4.78158E+03 1.11754E-11-4.82982E-12
 -1       513-3.13473E+02-4.82234E+04 2.55731E+02-4.75567E+03 1.14896E-11 2.12384E-11
 -1       514-4.66033E+02-4.88584E+04 1.54662E+02-4.64398E+03-1.12693E-11-1.05780E-11
 -1       515-6.29033E+02-4.95753E+04 4.32917E+01-4.43676E+03 2.94432E-11 7.39910E-12
 -1       516-8.00688E+02-5.03858E+04-7.91938E+01-4.12302E+03-5.56606E-11-4.44466E-12
 -1       517-9.79291E+02-5.13015E+04-2.13493E+02-3.69059E+03 2.21419E-11 6.25429E-12
 -1       518-1.16335E+03-5.23330E+04-3.60179E+02-3.12621E+03-1.51697E-11-7.59825E-12
 -1       519-1.35191E+03-5.34896E+04-5.19675E+02-2.41567E+03 1.86957E-11 5.89318E-12
 -1       520-1.54509E+03-5.47773E+04-6.92240E+02-1.54389E+03-2.07003E-11-2.72830E-12
 -1       521-1.74510E+03-5.61976E+04-8.77943E+02-4.94935E+02-2.14034E-11 1.39064E-12
 -1       522-1.95775E+03-5.77450E+04-1.07668E+03 7.48097E+02-1.13229E-11-1.28650E-11
 -1       523-2.19484E+03-5.94030E+04-1.28822E+03 2.20371E+03-3.89733E-11 7.13207E-12
 -1       524-2.47779E+03-6.11397E+04-1.51231E+03 3.89350E+03 9.80943E-11-1.31757E-11
 -1       525-2.84278E+03-6.29012E+04-1.74890E+03 5.84538E+03 5.72013E-11 8.07318E-12
 -1       526-3.34783E+03-6.46038E+04-1.99861E+03 8.10026E+03 3.03388E-11 1.21094E-11
 -1       527-4.08127E+03-6.61260E+04-2.26335E+03 1.07247E+04-9.07760E-11-2.33034E-11
 -1       528-5.16831E+03-6.73031E+04-2.54741E+03 1.38338E+04 5.01303E-11 1.81946E-11
 -1       529-6.76962E+03-6.79394E+04-2.85928E+03 1.76309E+04 4.24900E-11 2.26523E-12
 -1       530-9.05184E+03-6.78588E+04-3.21421E+03 2.24601E+04-4.86185E-11-1.82471E-12
 -1       531-1.06809E+04-7.02790E+04-3.81952E+03 2.55862E+04 5.82991E-12-5.29445E-12
 -1       601-4.85860E+01-4.23307E+04-7.32366E+02-5.26872E+02-7.59244E-12-5.74728E-12
 -1       602-1.30132E+02-4.28101E+04-6.71100E+02-9.83005E+02-2.41547E-11 4.66453E-12
 -1       603-2.51013E+02-4.32187E+04-6.43672E+02-1.79845E+03-5.66196E-11-9.45482E-12
 -1       604-3.74033E+02-4.36008E+04-6.39164E+02-2.43210E+03-5.93984E-12 2.64398E-11
 -1       605-4.98328E+02-4.39808E+04-6.52484E+02-2.93974E+03 2.67283E-11 2.32803E-12
 -1       606-6.27247E+02-4.43693E+04-6.80321E+02-3.35655E+03 5.44636E-11-2.59689E-12
 -1       607-7.64808E+02-4.47721E+04-7.20757E+02-3.70239E+03 2.20275E-11 1.24797E-11
 -1       608-9.13913E+02-4.51951E+04-7.72873E+02-3.98715E+03-2.98525E-11-2.43881E-11
 -1       609-1.07575E+03-4.56451E+04-8.36288E+02-4.21453E+03 3.59086E-11 6.02784E-12
 -1       610-1.25020E+03-4.61304E+04-9.10912E+02-4.38434E+03-7.30283E-12 2.37753E-12
 -1       611-1.43629E+03-4.66605E+04-9.96822E+02-4.49377E+03 2.05295E-11 9.30873E-12
 -1       612-1.63249E+03-4.72459E+04-1.09419E+03-4.53811E+03-1.58103E-11 5.30854E-12
 -1       613-1.83689E+03-4.78980E+04-1.20324E+03-4.51108E+03-3.61480E-13-1.09958E-11
 -1       614-2.04733E+03-4.86287E+04-1.32423E+03-4.40504E+03-4.00718E-12 7.87606E-12
 -1       615-2.26143E+03-4.94506E+04-1.45740E+03-4.21107E+03 3.46582E-11-9.83118E-12
 -1       616-2.47676E+03-5.03763E+04-1.60298E+03-3.91901E+03 2.39043E-11 1.47680E-11
 -1       617-2.69088E+03-5.14184E+04-1.76118E+03-3.51745E+03-1.79278E-12-8.77602E-13
 -1       618-2.90161E+03-5.25888E+04-1.93215E+03-2.99368E+03 8.54089E-13 8.32416E-12
 -1       619-3.10743E+03-5.38980E+04-2.11597E+03-2.33358E+03-3.74748E-11-1.98493E-11
 -1       620-3.30801E+03-5.53545E+04-2.31269E+03-1.52145E+03-2.67811E-11-1.98638E-11
 -1       621-3.50512E+03-5.69630E+04-2.52231E+03-5.39541E+02 8.05404E-13 7.54618E-12
 -1       622-3.70396E+03-5.87227E+04-2.74481E+03 6.32585E+02-2.23292E-11-4.15856E-12
 -1       623-3.91496E+03-6.06252E+04-2.98031E+03 2.01937E+03 3.07623E-11 6.31101E-12
 -1       624-4.15624E+03-6.26518E+04-3.22914E+03 3.65149E+03 3.25106E-11-1.25295E-11
 -1       625-4.45669E+03-6.47701E+04-3.49213E+03 5.56960E+03-6.26131E-11-1.34377E-11
 -1       626-4.85923E+03-6.69311E+04-3.77096E+03 7.83060E+03 4.12078E-11-3.76412E-12
 -1       627-5.42345E+03-6.90688E+04-4.06873E+03 1.05175E+04-1.05826E-11 6.68449E-13
 -1       628-6.22507E+03-7.11043E+04-4.39068E+03 1.37538E+04-3.10186E-11-5.49646E-12
 -1       629-7.34788E+03-7.29627E+04-4.74525E+03 1.77230E+04-1.03677E-10-1.59821E-12
 -1       630-8.86279E+03-7.46122E+04-5.14565E+03 2.26877E+04-6.51176E-11 2.03071E-11
 -1       631-1.00984E+04-7.87794E+04-5.80716E+03 2.59037E+04-1.95149E-10-1.98524E-11
 -1       701-1.87600E+02-4.09748E+04-2.68715E+03-4.84561E+02 7.89827E-11 6.31701E-12
 -1       702-3.68576E+02-4.16157E+04-2.39326E+03-9.08679E+02-6.93264E-11-8.86084E-12
 -1       703-6.78972E+02-4.21686E+04-2.22520E+03-1.67032E+03-5.93260E-11-1.01318E-11
 -1       704-9.55602E+02-4.26618E+04-2.12576E+03-2.26820E+03-3.54600E-11-1.53489E-11
 -1       705-1.21166E+03-4.31275E+04-2.07496E+03-2.74775E+03-1.29509E-11-7.62322E-12
 -1       706-1.45642E+03-4.35859E+04-2.06043E+03-3.13883E+03 1.95751E-11 1.50796E-11
 -1       707-1.69687E+03-4.40509E+04-2.07434E+03-3.46003E+03 2.11897E-11-2.60723E-12
 -1       708-1.93794E+03-4.45335E+04-2.11165E+03-3.72176E+03-2.89978E-11-7.39289E-12
 -1       709-2.18264E+03-4.50439E+04-2.16909E+03-3.92879E+03 5.87011E-12-9.16430E-13
 -1       710-2.43233E+03-4.55925E+04-2.24453E+03-4.08199E+03-2.30584E-11 1.10824E-11
 -1       711-2.68707E+03-4.61903E+04-2.33651E+03-4.17954E+03 2.81658E-11-5.07920E-12
 -1       712-2.94593E+03-4.68490E+04-2.44406E+03-4.21763E+03-5.76985E-11-1.47669E-11
 -1       713-3.20726E+03-4.75810E+04-2.56650E+03-4.19084E+03-3.77164E-11-2.67224E-12
 -1       714-3.46883E+03-4.83991E+04-2.70337E+03-4.09237E+03-1.66499E-11-1.40796E-11
 -1       715-3.72800E+03-4.93168E+04-2.85430E+03-3.91415E+03 1.01769E-11 1.17335E-11
 -1       716-3.98187E+03-5.03477E+04-3.01904E+03-3.64681E+03 9.46851E-12-6.15452E-12
 -1       717-4.22742E+03-5.15056E+04-3.19735E+03-3.27961E+03-4.41408E-11-1.28990E-11
 -1       718-4.46177E+03-5.28041E+04-3.38903E+03-2.80034E+03-3.65370E-11-2.05698E-12
 -1       719-4.68252E+03-5.42556E+04-3.59388E+03-2.19496E+03 2.62267E-11 7.94027E-12
 -1       720-4.88821E+03-5.58714E+04-3.81173E+03-1.44728E+03 3.45006E-11-2.47732E-12
 -1       721-5.07905E+03-5.76603E+04-4.04245E+03-5.38250E+02 6.18979E-11 6.04631E-12
 -1       722-5.25780E+03-5.96277E+04-4.28598E+03 5.54991E+02-3.86764E-11 3.10774E-12
 -1       723-5.43091E+03-6.17746E+04-4.54246E+03 1.86069E+03 4.02738E-11-5.02509E-12
 -1       724-5.60993E+03-6.40958E+04-4.81231E+03 3.41477E+03-1.68724E-11-1.32204E-12
 -1       725-5.81282E+03-6.65795E+04-5.09646E+03 5.26424E+03-6.51044E-11-2.17058E-13
 -1       726-6.06500E+03-6.92068E+04-5.39658E+03 7.47213E+03 1.55779E-11 4.12951E-12
 -1       727-6.39904E+03-7.19542E+04-5.71545E+03 1.01240E+04 4.96842E-12 1.30139E-11
 -1       728-6.85183E+03-7.47999E+04-6.05737E+03 1.33363E+04 3.76511E-11-1.60470E-11
 -1       729-7.45731E+03-7.77373E+04-6.42870E+03 1.72644E+04-3.63248E-12 2.03660E-11
 -1       730-8.23266E+03-8.07989E+04-6.83847E+03 2.21078E+04 1.27792E-11-3.32899E-12
 -1       731-9.08191E+03-8.62225E+04-7.50447E+03 2.52403E+04-7.52074E-11 1.91733E-11
 -1       801-3.14030E+02-3.97329E+04-4.50008E+03-4.34891E+02-6.88337E-12 6.58725E-12
 -1       802-5.83502E+02-4.05055E+04-3.99434E+03-8.18968E+02-2.36078E-10-5.73202E-11
 -1       803-1.06345E+03-4.11818E+04-3.69679E+03-1.51056E+03 6.82688E-11 1.90066E-11
 -1       804-1.47553E+03-4.17759E+04-3.50906E+03-2.05825E+03-2.60822E-11-3.96466E-12
 -1       805-1.84642E+03-4.23239E+04-3.39767E+03-2.49920E+03 5.02742E-11 2.11235E-11
 -1       806-2.19204E+03-4.28514E+04-3.34211E+03-2.85823E+03-2.10365E-11-2.08488E-11
 -1       807-2.52266E+03-4.33775E+04-3.32929E+03-3.15147E+03-1.18743E-11-1.49116E-12
 -1       808-2.84505E+03-4.39175E+04-3.35057E+03-3.38866E+03 2.21604E-11 3.91007E-12
 -1       809-3.16345E+03-4.44846E+04-3.40013E+03-3.57481E+03 4.23426E-11 2.02579E-11
 -1       810-3.48017E+03-4.50917E+04-3.47396E+03-3.71146E+03 4.81323E-11 2.15254E-12
 -1       811-3.79596E+03-4.57513E+04-3.56924E+03-3.79759E+03-4.74339E-11-3.19623E-12
 -1       812-4.11037E+03-4.64764E+04-3.68394E+03-3.83024E+03 6.65565E-11 2.23160E-11
 -1       813-4.42195E+03-4.72803E+04-3.81656E+03-3.80485E+03-1.22554E-11-1.09634E-11
 -1       814-4.72847E+03-4.81769E+04-3.96596E+03-3.71551E+03-3.63515E-11-1.77508E-12
 -1       815-5.02710E+03-4.91807E+04-4.13127E+03-3.55499E+03 1.34247E-11 1.34446E-11
 -1       816-5.31454E+03-5.03064E+04-4.31176E+03-3.31476E+03 1.58695E-11 1.28678E-11
 -1       817-5.58715E+03-5.15693E+04-4.50684E+03-2.98482E+03-3.65199E-11-1.25522E-11
 -1       818-5.84123E+03-5.29844E+04-4.71597E+03-2.55354E+03 3.96056E-11 4.58782E-12
 -1       819-6.07317E+03-5.45670E+04-4.93868E+03-2.00726E+03 5.17467E-11 1.63547E-11
 -1       820-6.27988E+03-5.63313E+04-5.17458E+03-1.32979E+03-8.85298E-11-2.72530E-11
 -1       821-6.45914E+03-5.82910E+04-5.42332E+03-5.01666E+02 2.97979E-11 6.50199E-12
 -1       822-6.61013E+03-6.04579E+04-5.68466E+03 5.00922E+02-1.03859E-11-1.21663E-12
 -1       823-6.73401E+03-6.28422E+04-5.95853E+03 1.70763E+03-1.96201E-11-1.61586E-11
 -1       824-6.83441E+03-6.54518E+04-6.24512E+03 3.15602E+03-5.77531E-12 4.59577E-12
 -1       825-6.91774E+03-6.82928E+04-6.54498E+03 4.89427E+03 7.58162E-11 9.81286E-12
 -1       826-6.99288E+03-7.13706E+04-6.85915E+03 6.98471E+03-2.64024E-11-1.29440E-11
 -1       827-7.06991E+03-7.46930E+04-7.18938E+03 9.50786E+03-8.76857E-12 2.03137E-11
 -1       828-7.15705E+03-7.82753E+04-7.53832E+03 1.25668E+04-2.44974E-11-1.19930E-11
 -1       829-7.25529E+03-8.21500E+04-7.90969E+03 1.62900E+04-4.26299E-11-6.16030E-12
 -1       830-7.35045E+03-8.63801E+04-8.30846E+03 2.08318E+04-1.21293E-10-2.05521E-12
 -1       831-7.84351E+03-9.27618E+04-8.95365E+03 2.37635E+04 8.07731E-12-1.63109E-11
 -1       901-4.26093E+02-3.86232E+04-6.13728E+03-3.79948E+02 5.57401E-11-4.20488E-12
 -1       902-7.73116E+02-3.95033E+04-5.44362E+03-7.17980E+02 2.06028E-10 4.81659E-11
 -1       903-1.40216E+03-4.02835E+04-5.03016E+03-1.32771E+03-1.08354E-10-2.86046E-11
 -1       904-1.93222E+03-4.09658E+04-4.76267E+03-1.81399E+03 6.30704E-11 1.17996E-11
 -1       905-2.40213E+03-4.15885E+04-4.59591E+03-2.20716E+03-3.18964E-11-1.47338E-11
 -1       906-2.83425E+03-4.21803E+04-4.50223E+03-2.52754E+03-1.88705E-11-8.60024E-12
 -1       907-3.24224E+03-4.27638E+04-4.46389E+03-2.78861E+03-9.00473E-11-1.25524E-11
 -1       908-3.63468E+03-4.33573E+04-4.46915E+03-2.99887E+03 7.27038E-11 1.82907E-11
 -1       909-4.01688E+03-4.39767E+04-4.50996E+03-3.16297E+03-2.83738E-11 4.04054E-14
 -1       910-4.39183E+03-4.46368E+04-4.58068E+03-3.28271E+03-3.68934E-11-2.12804E-11
 -1       911-4.76075E+03-4.53517E+04-4.67727E+03-3.35760E+03 3.29128E-11 4.39232E-12
 -1       912-5.12348E+03-4.61357E+04-4.79679E+03-3.38541E+03-2.38257E-11-7.35081E-12
 -1       913-5.47870E+03-4.70032E+04-4.93699E+03-3.36238E+03-6.15257E-11-2.22070E-11
 -1       914-5.82413E+03-4.79690E+04-5.09617E+03-3.28345E+03 5.89374E-11 1.33678E-11
 -1       915-6.15673E+03-4.90488E+04-5.27296E+03-3.14231E+03 4.20565E-11-3.38656E-12
 -1       916-6.47277E+03-5.02585E+04-5.46625E+03-2.93131E+03 1.27002E-12-1.69943E-12
 -1       917-6.76795E+03-5.16148E+04-5.67510E+03-2.64137E+03-3.77129E-12-1.58037E-12
 -1       918-7.03758E+03-5.31347E+04-5.89868E+03-2.26169E+03 3.54313E-11 6.00452E-12
 -1       919-7.27667E+03-5.48358E+04-6.13626E+03-1.77939E+03-7.93487E-11-2.49930E-11
 -1       920-7.48011E+03-5.67360E+04-6.38717E+03-1.17897E+03-8.30027E-12-2.90909E-12
 -1       921-7.64286E+03-5.88535E+04-6.65081E+03-4.41558E+02-7.81458E-12-2.69927E-14
 -1       922-7.76007E+03-6.12065E+04-6.92668E+03 4.56078E+02 3.05528E-11-1.28959E-12
 -1       923-7.82724E+03-6.38138E+04-7.21435E+03 1.54283E+03-8.80153E-12 3.48987E-12
 -1       924-7.84011E+03-6.66948E+04-7.51356E+03 2.85494E+03-5.90744E-12-9.20443E-12
 -1       925-7.79439E+03-6.98704E+04-7.82424E+03 4.43801E+03-1.11113E-10-2.53786E-11
 -1       926-7.68483E+03-7.33647E+04-8.14657E+03 6.34940E+03 1.04014E-10 2.69605E-11
 -1       927-7.50375E+03-7.72080E+04-8.48103E+03 8.66065E+03-1.88249E-11-1.28427E-11
 -1       928-7.23842E+03-8.14403E+04-8.82846E+03 1.14597E+04 6.38831E-11 8.05100E-12
 -1       929-6.86751E+03-8.61179E+04-9.19007E+03 1.48516E+04-3.31125E-12-4.82626E-12
 -1       930-6.35670E+03-9.13194E+04-9.56740E+03 1.89579E+04 8.33280E-11 1.33896E-11
 -1       931-6.53290E+03-9.84588E+04-1.01807E+04 2.16041E+04 2.67887E-11-8.29428E-12
 -1      1001-5.22578E+02-3.76607E+04-7.57006E+03-3.21169E+02-6.66544E-11-2.37056E-11
 -1      1002-9.35878E+02-3.86275E+04-6.71465E+03-6.08661E+02 2.03518E-11-3.94850E-12
 -1      1003-1.69273E+03-3.94938E+04-6.20063E+03-1.12777E+03-2.54496E-11-5.05660E-12
 -1      1004-2.32335E+03-4.02505E+04-5.86344E+03-1.54409E+03-3.70996E-11 4.16027E-12
 -1      1005-2.87701E+03-4.09379E+04-5.64788E+03-1.88199E+03 3.33726E-11-2.53573E-12
 -1      1006-3.38184E+03-4.15867E+04-5.52016E+03-2.15780E+03-3.29663E-11-5.29584E-12
 -1      1007-3.85470E+03-4.22216E+04-5.45864E+03-2.38246E+03-4.55922E-11-8.66634E-12
 -1      1008-4.30593E+03-4.28631E+04-5.44886E+03-2.56299E+03 7.01955E-12-5.33979E-13
 -1      1009-4.74182E+03-4.35290E+04-5.48091E+03-2.70342E+03-1.06385E-10-2.73635E-11
 -1      1010-5.16594E+03-4.42358E+04-5.54779E+03-2.80548E+03 2.78876E-11 1.37502E-11
 -1      1011-5.57983E+03-4.49990E+04-5.64440E+03-2.86900E+03-2.52863E-11-8.11022E-12
 -1      1012-5.98350E+03-4.58340E+04-5.76701E+03-2.89228E+03 6.78787E-11 2.07893E-11
 -1      1013-6.37566E+03-4.67564E+04-5.91275E+03-2.87231E+03-3.50832E-12-6.64794E-12
 -1      1014-6.75395E+03-4.77819E+04-6.07942E+03-2.80488E+03-9.84934E-12-4.88513E-14
 -1      1015-7.11505E+03-4.89272E+04-6.26523E+03-2.68461E+03-1.16345E-10-2.49805E-11
 -1      1016-7.45476E+03-5.02095E+04-6.46873E+03-2.50488E+03 5.21923E-11 1.38219E-11
 -1      1017-7.76809E+03-5.16469E+04-6.68866E+03-2.25768E+03 8.49416E-13 2.87999E-12
 -1      1018-8.04929E+03-5.32584E+04-6.92394E+03-1.93339E+03-6.15093E-11-1.26366E-11
 -1      1019-8.29190E+03-5.50640E+04-7.17357E+03-1.52037E+03-3.49381E-11-3.78728E-12
 -1      1020-8.48872E+03-5.70849E+04-7.43661E+03-1.00451E+03-1.93314E-11 2.55323E-13
 -1      1021-8.63181E+03-5.93436E+04-7.71220E+03-3.68521E+02-6.53114E-12-2.58229E-12
 -1      1022-8.71236E+03-6.18643E+04-7.99949E+03 4.08892E+02 9.25093E-11 3.16756E-12
 -1      1023-8.72050E+03-6.46729E+04-8.29765E+03 1.35408E+03-8.04500E-11-1.84951E-11
 -1      1024-8.64490E+03-6.77985E+04-8.60592E+03 2.49976E+03 3.26391E-11 1.07845E-11
 -1      1025-8.47208E+03-7.12739E+04-8.92350E+03 3.88641E+03-2.89369E-11-1.37398E-11
 -1      1026-8.18540E+03-7.51375E+04-9.24966E+03 5.56391E+03 8.59719E-12 1.00616E-11
 -1      1027-7.76353E+03-7.94353E+04-9.58363E+03 7.59296E+03-8.35354E-11-2.28924E-11
 -1      1028-7.17844E+03-8.42245E+04-9.92461E+03 1.00462E+04-6.27084E-11-4.14840E-12
 -1      1029-6.39302E+03-8.95763E+04-1.02717E+04 1.30084E+04 1.20523E-10 2.32413E-11
 -1      1030-5.35873E+03-9.55799E+04-1.06236E+04 1.65758E+04 3.67837E-11 5.25709E-12
 -1      1031-5.26187E+03-1.03327E+05-1.12019E+04 1.88719E+04 3.26184E-11 1.42726E-11
 -1      1101-6.02567E+02-3.68577E+04-8.77450E+03-2.59638E+02 3.53194E-11 2.41173E-12
 -1      1102-1.07055E+03-3.78928E+04-7.78506E+03-4.93217E+02 1.09063E-10 2.40758E-11
 -1      1103-1.93312E+03-3.88280E+04-7.18720E+03-9.15225E+02-6.96892E-11-1.50154E-11
 -1      1104-2.64663E+03-3.96455E+04-6.79155E+03-1.25514E+03 7.11373E-11 1.26847E-11
 -1      1105-3.26893E+03-4.03865E+04-6.53478E+03-1.53192E+03 1.13788E-10 2.15926E-11
 -1      1106-3.83305E+03-4.10833E+04-6.37808E+03-1.75826E+03 7.04279E-11 1.25175E-11
 -1      1107-4.35863E+03-4.17619E+04-6.29652E+03-1.94269E+03-4.73239E-11-3.27063E-12
 -1      1108-4.85760E+03-4.24443E+04-6.27349E+03-2.09077E+03-3.18751E-11-8.23465E-12
 -1      1109-5.33715E+03-4.31499E+04-6.29750E+03-2.20575E+03-6.01835E-12 9.86949E-13
 -1      1110-5.80132E+03-4.38962E+04-6.36042E+03-2.28912E+03 9.55273E-11 1.41794E-11
 -1      1111-6.25191E+03-4.47001E+04-6.45633E+03-2.34085E+03 9.24294E-12 2.84958E-12
 -1      1112-6.68903E+03-4.55778E+04-6.58081E+03-2.35969E+03-4.97404E-11-1.67492E-11
 -1      1113-7.11138E+03-4.65458E+04-6.73050E+03-2.34328E+03 5.77444E-11 1.94149E-11
 -1      1114-7.51644E+03-4.76210E+04-6.90276E+03-2.28825E+03 6.65870E-11 1.37212E-11
 -1      1115-7.90059E+03-4.88209E+04-7.09547E+03-2.19020E+03-4.89200E-11-1.14238E-11
 -1      1116-8.25918E+03-5.01638E+04-7.30689E+03-2.04365E+03 1.73542E-11 2.23674E-12
 -1      1117-8.58651E+03-5.16692E+04-7.53549E+03-1.84190E+03 1.56755E-11-1.03247E-12
 -1      1118-8.87582E+03-5.33579E+04-7.77994E+03-1.57679E+03 9.94342E-12-1.63118E-12
 -1      1119-9.11921E+03-5.52522E+04-8.03902E+03-1.23842E+03-1.43791E-11 1.12846E-12
 -1      1120-9.30753E+03-5.73761E+04-8.31154E+03-8.14671E+02 3.97192E-11 1.19117E-11
 -1      1121-9.43016E+03-5.97559E+04-8.59635E+03-2.90714E+02 3.65571E-12 4.27793E-12
 -1      1122-9.47475E+03-6.24207E+04-8.89228E+03 3.51695E+02-9.49263E-12-7.55498E-12
 -1      1123-9.42679E+03-6.54027E+04-9.19811E+03 1.13502E+03 1.01038E-10 1.89325E-11
 -1      1124-9.26899E+03-6.87384E+04-9.51253E+03 2.08687E+03-1.13950E-10-9.01675E-12
 -1      1125-8.98052E+03-7.24697E+04-9.83411E+03 3.24101E+03 8.45896E-11 1.36561E-11
 -1      1126-8.53585E+03-7.66455E+04-1.01613E+04 4.63836E+03-3.37936E-11-8.63660E-12
 -1      1127-7.90343E+03-8.13235E+04-1.04921E+04 6.32794E+03 1.82079E-11 9.60873E-12
 -1      1128-7.04405E+03-8.65724E+04-1.08245E+04 8.36743E+03 1.83967E-11-5.53670E-13
 -1      1129-5.90914E+03-9.24740E+04-1.11558E+04 1.08234E+04 5.92074E-12-2.41434E-12
 -1      1130-4.43929E+03-9.91255E+04-1.14827E+04 1.37709E+04-7.51067E-11-1.32431E-11
 -1      1131-4.11577E+03-1.07356E+05-1.20280E+04 1.56664E+04 4.96599E-11 6.76567E-12
 -1      1201-6.65395E+02-3.62238E+04-9.73121E+03-1.96184E+02-6.98903E-11-1.03802E-11
 -1      1202-1.17620E+03-3.73103E+04-8.63659E+03-3.73365E+02-9.53280E-11-1.27948E-11
 -1      1203-2.12172E+03-3.82983E+04-7.97258E+03-6.93585E+02 1.23965E-10 1.83741E-11
 -1      1204-2.90010E+03-3.91628E+04-7.53063E+03-9.52345E+02-3.50596E-11-6.81835E-12
 -1      1205-3.57593E+03-3.99458E+04-7.24103E+03-1.16357E+03-5.73872E-11-7.68570E-12
 -1      1206-4.18610E+03-4.06806E+04-7.06109E+03-1.33659E+03 5.52790E-12 2.30944E-12
 -1      1207-4.75251E+03-4.13941E+04-6.96333E+03-1.47767E+03 4.44357E-11 5.62786E-12
 -1      1208-5.28840E+03-4.21094E+04-6.92940E+03-1.59092E+03-1.16615E-11-1.25827E-11
 -1      1209-5.80170E+03-4.28467E+04-6.94663E+03-1.67879E+03 3.26959E-11 4.30849E-12
 -1      1210-6.29686E+03-4.36246E+04-7.00599E+03-1.74242E+03 3.52215E-11 1.13410E-12
 -1      1211-6.77590E+03-4.44608E+04-7.10090E+03-1.78184E+03 2.06210E-11 5.28857E-12
 -1      1212-7.23897E+03-4.53724E+04-7.22644E+03-1.79617E+03-9.79943E-11-1.45199E-11
 -1      1213-7.68472E+03-4.63766E+04-7.37884E+03-1.78364E+03 2.80993E-11 4.97683E-12
 -1      1214-8.11047E+03-4.74910E+04-7.55512E+03-1.74173E+03-3.08803E-11-2.99297E-12
 -1      1215-8.51234E+03-4.87340E+04-7.75291E+03-1.66707E+03-2.71687E-12-2.88334E-12
 -1      1216-8.88523E+03-5.01249E+04-7.97021E+03-1.55544E+03-6.87621E-11-5.49390E-12
 -1      1217-9.22281E+03-5.16844E+04-8.20529E+03-1.40162E+03 1.49848E-11 4.62906E-12
 -1      1218-9.51743E+03-5.34347E+04-8.45662E+03-1.19922E+03 7.07464E-11 2.30481E-11
 -1      1219-9.75994E+03-5.54000E+04-8.72277E+03-9.40458E+02-3.12859E-11-3.05223E-12
 -1      1220-9.93952E+03-5.76068E+04-9.00234E+03-6.15771E+02 4.52571E-13-1.28756E-11
 -1      1221-1.00433E+04-6.00844E+04-9.29394E+03-2.13452E+02 3.24587E-11 6.51997E-12
 -1      1222-1.00561E+04-6.28657E+04-9.59610E+03 2.80856E+02-5.97039E-11-2.54345E-11
 -1      1223-9.95951E+03-6.59878E+04-9.90725E+03 8.84743E+02 2.35021E-11 4.46492E-12
 -1      1224-9.73179E+03-6.94928E+04-1.02256E+04 1.61967E+03-4.26613E-11 1.09761E-11
 -1      1225-9.34642E+03-7.34294E+04-1.05493E+04 2.51164E+03-4.62816E-12-8.84544E-12
 -1      1226-8.77131E+03-7.78539E+04-1.08758E+04 3.59183E+03-7.79611E-11-4.24098E-12
 -1      1227-7.96751E+03-8.28322E+04-1.12026E+04 4.89717E+03 1.29420E-10 1.36664E-11
 -1      1228-6.88776E+03-8.84410E+04-1.15264E+04 6.47076E+03-7.61292E-11-1.47404E-11
 -1      1229-5.47515E+03-9.47699E+04-1.18432E+04 8.36202E+03-8.26499E-11-3.00293E-12
 -1      1230-3.66185E+03-1.01923E+05-1.21482E+04 1.06267E+04-5.00110E-11-4.28365E-12
 -1      1231-3.15991E+03-1.10524E+05-1.26656E+04 1.20824E+04 4.40403E-11 8.47616E-12
 -1      1301-7.10584E+02-3.57660E+04-1.04252E+04-1.31440E+02 5.27160E-11 1.69373E-11
 -1      1302-1.25212E+03-3.68885E+04-9.25499E+03-2.50479E+02 2.84117E-11 5.64145E-12
 -1      1303-2.25727E+03-3.79137E+04-8.54328E+03-4.65657E+02 7.03073E-12-5.09339E-12
 -1      1304-3.08224E+03-3.88116E+04-8.06780E+03-6.39922E+02-1.42287E-11 4.68576E-12
 -1      1305-3.79641E+03-3.96248E+04-7.75436E+03-7.82431E+02-7.83302E-11-8.01771E-12
 -1      1306-4.43946E+03-4.03869E+04-7.55745E+03-8.99305E+02 5.07026E-11 3.47895E-12
 -1      1307-5.03495E+03-4.11258E+04-7.44779E+03-9.94671E+02 6.70836E-11 6.16426E-12
 -1      1308-5.59710E+03-4.18650E+04-7.40579E+03-1.07123E+03 9.19633E-12 4.29407E-12
 -1      1309-6.13440E+03-4.26255E+04-7.41789E+03-1.13062E+03 2.94147E-11 4.01500E-12
 -1      1310-6.65161E+03-4.34265E+04-7.47446E+03-1.17360E+03-5.04209E-11-5.30444E-12
 -1      1311-7.15089E+03-4.42862E+04-7.56843E+03-1.20021E+03-6.87759E-11-5.92412E-12
 -1      1312-7.63243E+03-4.52223E+04-7.69451E+03-1.20988E+03 3.63448E-11 8.74660E-13
 -1      1313-8.09483E+03-4.62526E+04-7.84865E+03-1.20144E+03-9.11296E-11-1.49460E-11
 -1      1314-8.53527E+03-4.73954E+04-8.02764E+03-1.17319E+03-2.10684E-11-4.28768E-12
 -1      1315-8.94964E+03-4.86696E+04-8.22889E+03-1.12286E+03 4.25460E-11 8.38513E-12
 -1      1316-9.33250E+03-5.00953E+04-8.45023E+03-1.04758E+03-8.94593E-12 2.95513E-12
 -1      1317-9.67701E+03-5.16941E+04-8.68980E+03-9.43768E+02 1.77555E-11-1.28258E-12
 -1      1318-9.97483E+03-5.34893E+04-8.94590E+03-8.07050E+02-5.93300E-11-2.58543E-12
 -1      1319-1.02158E+04-5.55065E+04-9.21693E+03-6.32039E+02 5.02819E-11 5.01053E-13
 -1      1320-1.03880E+04-5.77741E+04-9.50136E+03-4.12153E+02-2.94701E-11 3.36209E-12
 -1      1321-1.04767E+04-6.03235E+04-9.79758E+03-1.39308E+02-3.53225E-11-5.49233E-12
 -1      1322-1.04645E+04-6.31905E+04-1.01039E+04 1.96371E+02-1.25291E-11 1.03510E-11
 -1      1323-1.03306E+04-6.64154E+04-1.04185E+04 6.06947E+02 2.73717E-11-3.74995E-12
 -1      1324-1.00498E+04-7.00444E+04-1.07393E+04 1.10705E+03 2.47840E-11-4.29407E-13
 -1      1325-9.59163E+03-7.41307E+04-1.10638E+04 1.71431E+03-4.14938E-11 4.40970E-13
 -1      1326-8.91956E+03-7.87358E+04-1.13892E+04 2.44970E+03 4.72803E-11-2.34812E-12
 -1      1327-7.98956E+03-8.39309E+04-1.17122E+04 3.33791E+03 2.21175E-11-1.97474E-12
 -1      1328-6.74893E+03-8.97981E+04-1.20288E+04 4.40761E+03-9.81627E-12 3.51007E-12
 -1      1329-5.13498E+03-9.64325E+04-1.23341E+04 5.69162E+03-5.13334E-12-2.76374E-12
 -1      1330-3.07373E+03-1.03943E+05-1.26223E+04 7.22714E+03-8.29716E-12-3.08884E-12
 -1      1331-2.44314E+03-1.12808E+05-1.31186E+04 8.21372E+03 6.88003E-11 3.23865E-11
 -1      1401-7.37817E+02-3.54893E+04-1.08459E+04-6.59069E+01-3.37726E-11 4.12900E-12
 -1      1402-1.29785E+03-3.66331E+04-9.63010E+03-1.25695E+02-6.60535E-11-8.49239E-12
 -1      1403-2.33893E+03-3.76805E+04-8.88958E+03-2.33780E+02-3.90489E-11-7.85896E-12
 -1      1404-3.19196E+03-3.85983E+04-8.39382E+03-3.21428E+02-3.39783E-11 7.01182E-12
 -1      1405-3.92918E+03-3.94296E+04-8.06592E+03-3.93182E+02 3.97672E-11 6.92529E-12
 -1      1406-4.59196E+03-4.02084E+04-7.85869E+03-4.52073E+02-7.51649E-11-9.58736E-15
 -1      1407-5.20487E+03-4.09626E+04-7.74176E+03-5.00149E+02-6.71156E-11-6.12052E-13
 -1      1408-5.78273E+03-4.17164E+04-7.69479E+03-5.38751E+02-7.33381E-12 1.64119E-12
 -1      1409-6.33438E+03-4.24910E+04-7.70372E+03-5.68692E+02-1.21780E-11 2.83098E-12
 -1      1410-6.86479E+03-4.33060E+04-7.75851E+03-5.90356E+02-1.85547E-11-3.25463E-12
 -1      1411-7.37618E+03-4.41799E+04-7.85182E+03-6.03766E+02-4.79293E-11-1.44126E-12
 -1      1412-7.86877E+03-4.51309E+04-7.97814E+03-6.08638E+02-1.25961E-11-2.79073E-12
 -1      1413-8.34112E+03-4.61771E+04-8.13325E+03-6.04392E+02 4.10590E-11 4.03625E-12
 -1      1414-8.79034E+03-4.73370E+04-8.31379E+03-5.90175E+02-7.37514E-11-7.19989E-12
 -1      1415-9.21214E+03-4.86301E+04-8.51705E+03-5.64840E+02-6.60711E-12-3.64525E-13
 -1      1416-9.60087E+03-5.00769E+04-8.74077E+03-5.26932E+02-5.64671E-11-1.81970E-12
 -1      1417-9.94937E+03-5.16996E+04-8.98297E+03-4.74636E+02-8.17433E-11-3.04701E-12
 -1      1418-1.02488E+04-5.35221E+04-9.24186E+03-4.05721E+02-1.17630E-11-7.96822E-12
 -1      1419-1.04886E+04-5.55710E+04-9.51577E+03-3.17440E+02-1.89376E-11 5.83350E-12
 -1      1420-1.06557E+04-5.78756E+04-9.80302E+03-2.06438E+02-1.44544E-11 1.50254E-12
 -1      1421-1.07347E+04-6.04689E+04-1.01019E+04-6.85910E+01-3.99012E-11-1.76492E-12
 -1      1422-1.07068E+04-6.33882E+04-1.04106E+04 1.01127E+02-3.64855E-11-5.53283E-12
 -1      1423-1.05494E+04-6.66759E+04-1.07271E+04 3.08844E+02-1.31794E-11-7.63001E-12
 -1      1424-1.02355E+04-7.03805E+04-1.10491E+04 5.61969E+02-4.70248E-11 7.34163E-13
 -1      1425-9.73224E+03-7.45579E+04-1.13739E+04 8.69386E+02-1.62733E-11-1.30014E-12
 -1      1426-9.00053E+03-7.92725E+04-1.16984E+04 1.24165E+03-3.24917E-11 6.74930E-14
 -1      1427-7.99337E+03-8.45985E+04-1.20188E+04 1.69111E+03-9.26862E-11-7.48422E-12
 -1      1428-6.65490E+03-9.06213E+04-1.23307E+04 2.23210E+03 5.88382E-11 1.23237E-11
 -1      1429-4.91897E+03-9.74391E+04-1.26287E+04 2.88101E+03-4.27830E-11-5.70254E-12
 -1      1430-2.70787E+03-1.05164E+05-1.29064E+04 3.65646E+03 6.14780E-11 4.65324E-12
 -1      1431-1.99959E+03-1.14187E+05-1.33895E+04 4.15457E+03-1.96604E-11-2.74162E-12
 -1      1501-7.46914E+02-3.53968E+04-1.09868E+04-3.80732E+02 7.96852E-12-1.82379E-11
 -1      1502-1.31313E+03-3.65476E+04-9.75582E+03-3.83142E+02 3.70438E-11 1.73284E-11
 -1      1503-2.36621E+03-3.76023E+04-9.00567E+03-3.90917E+02-2.62532E-11 8.07329E-12
 -1      1504-3.22861E+03-3.85268E+04-8.50311E+03-4.02655E+02 2.54379E-10 4.37305E-12
 -1      1505-3.97352E+03-3.93641E+04-8.17037E+03-4.17512E+02-4.45806E-11-4.61735E-12
 -1      1506-4.64288E+03-4.01484E+04-7.95967E+03-4.34946E+02-8.79887E-11 2.46617E-12
 -1      1507-5.26159E+03-4.09078E+04-7.84029E+03-4.54593E+02 1.52547E-10 3.91134E-12
 -1      1508-5.84468E+03-4.16665E+04-7.79165E+03-4.76189E+02-8.55705E-11-1.66780E-12
 -1      1509-6.40111E+03-4.24458E+04-7.79950E+03-4.99531E+02 8.75607E-11-1.34967E-12
 -1      1510-6.93590E+03-4.32655E+04-7.85369E+03-5.24440E+02-1.01242E-10 3.07778E-12
 -1      1511-7.45133E+03-4.41442E+04-7.94676E+03-5.50751E+02 1.23110E-10-2.74167E-12
 -1      1512-7.94760E+03-4.51002E+04-8.07316E+03-5.78299E+02-3.17549E-11 4.56415E-12
 -1      1513-8.42326E+03-4.61517E+04-8.22857E+03-6.06906E+02-1.30235E-10-6.66227E-12
 -1      1514-8.87539E+03-4.73174E+04-8.40962E+03-6.36377E+02 3.60140E-11 5.45820E-12
 -1      1515-9.29966E+03-4.86168E+04-8.61354E+03-6.66489E+02 5.36198E-12 8.73364E-12
 -1      1516-9.69033E+03-5.00707E+04-8.83804E+03-6.96981E+02-4.86571E-11-1.24107E-11
 -1      1517-1.00401E+04-5.17013E+04-9.08110E+03-7.27539E+02 4.26200E-11-2.14949E-12
 -1      1518-1.03401E+04-5.35330E+04-9.34092E+03-7.57782E+02-4.27385E-11-1.30739E-11
 -1      1519-1.05794E+04-5.55925E+04-9.61577E+03-7.87234E+02 1.63529E-11 1.76086E-11
 -1      1520-1.07448E+04-5.79096E+04-9.90396E+03-8.15308E+02-3.33655E-11-1.56159E-11
 -1      1521-1.08204E+04-6.05177E+04-1.02037E+04-8.41257E+02 8.77520E-11 3.43769E-12
 -1      1522-1.07870E+04-6.34546E+04-1.05132E+04-8.64151E+02-5.91994E-11-2.58293E-12
 -1      1523-1.06217E+04-6.67634E+04-1.08303E+04-8.82815E+02 3.39474E-12 5.43555E-12
 -1      1524-1.02965E+04-7.04934E+04-1.11527E+04-8.95789E+02 3.62166E-11-4.87696E-12
 -1      1525-9.77801E+03-7.47013E+04-1.14776E+04-9.01271E+02 7.98684E-11 9.37132E-12
 -1      1526-9.02618E+03-7.94526E+04-1.18017E+04-8.97058E+02 6.37403E-11 2.88955E-12
 -1      1527-7.99308E+03-8.48223E+04-1.21212E+04-8.80496E+02-8.62854E-11 3.35784E-12
 -1      1528-6.62177E+03-9.08972E+04-1.24315E+04-8.48425E+02 4.49103E-11-5.83665E-12
 -1      1529-4.84500E+03-9.77761E+04-1.27270E+04-7.97136E+02 1.69616E-11-8.81627E-13
 -1      1530-2.58376E+03-1.05572E+05-1.30010E+04-7.22302E+02-1.07722E-10 1.37545E-11
 -1      1531-1.84949E+03-1.14648E+05-1.34797E+04-6.37609E+02 5.15268E-11-2.47253E-11
 -3
    1PSTEP                         3           2           1          
  100CL  102 2.00000E-01         496                     0    2           1
 -4  DISP        4    1
 -5  D1          1    2    1    0
 -5  D2          1    2    2    0
 -5  D3          1    2    3    0
 -5  ALL         1    2    0    0    1ALL
 -1         1 3.86247E-09 2.29271E-08 2.36500E-25
 -1         2 4.02517E-09 2.32516E-08 2.46463E-25
 -1         3 4.24754E-09 2.35575E-08 2.60078E-25
 -1         4 4.51481E-09 2.38503E-08 2.76443E-25
 -1         5 4.82026E-09 2.41355E-08 2.95146E-25
 -1         6 5.16082E-09 2.44199E-08 3.15998E-25
 -1         7 5.53513E-09 2.47105E-08 3.38918E-25
 -1         8 5.94272E-09 2.50152E-08 3.63875E-25
 -1         9 6.38355E-09 2.53419E-08 3.90867E-25
 -1        10 6.85777E-09 2.56993E-08 4.19903E-25
 -1        11 7.36560E-09 2.60960E-08 4.50998E-25
 -1        12 7.90719E-09 2.65415E-08 4.84160E-25
 -1        13 8.48255E-09 2.70455E-08 5.19390E-25
 -1        14 9.09143E-09 2.76183E-08 5.56671E-25
 -1        15 9.73319E-09 2.82708E-08 5.95966E-25
 -1        16 1.04067E-08 2.90147E-08 6.37207E-25
 -1        17 1.11103E-08 2.98620E-08 6.80285E-25
 -1        18 1.18412E-08 3.08254E-08 7.25041E-25
 -1        19 1.25959E-08 3.19179E-08 7.71254E-25
 -1        20 1.33695E-08 3.31528E-08 8.18620E-25
 -1        21 1.41555E-08 3.45429E-08 8.66743E-25
 -1        22 1.49453E-08 3.61005E-08 9.15107E-25
 -1        23 1.57284E-08 3.78361E-08 9.63056E-25
 -1        24 1.64915E-08 3.97571E-08 1.00978E-24
 -1        25 1.72182E-08 4.18662E-08 1.05428E-24
 -1        26 1.78895E-08 4.41581E-08 1.09538E-24
 -1        27 1.84834E-08 4.66156E-08 1.13174E-24
 -1        28 1.89768E-08 4.92022E-08 1.16195E-24
 -1        29 1.93486E-08 5.18511E-08 1.18472E-24
 -1        30 1.95873E-08 5.44468E-08 1.19934E-24
 -1        31 1.97136E-08 5.68416E-08 1.20707E-24
 -1       101 2.82672E-09 2.01720E-08 1.73081E-25
 -1       102 3.02742E-09 2.05050E-08 1.85370E-25
 -1       103 3.25896E-09 2.08086E-08 1.99547E-25
 -1       104 3.51599E-09 2.10905E-08 2.15285E-25
 -1       105 3.79426E-09 2.13588E-08 2.32324E-25
 -1       106 4.09057E-09 2.16219E-08 2.50467E-25
 -1       107 4.40262E-09 2.18880E-08 2.69574E-25
 -1       108 4.72878E-09 2.21653E-08 2.89545E-25
 -1       109 5.06782E-09 2.24626E-08 3.10304E-25
 -1       110 5.41873E-09 2.27886E-08 3.31790E-25
 -1       111 5.78058E-09 2.31526E-08 3.53947E-25
 -1       112 6.15242E-09 2.35641E-08 3.76715E-25
 -1       113 6.53318E-09 2.40334E-08 4.00029E-25
 -1       114 6.92163E-09 2.45713E-08 4.23813E-25
 -1       115 7.31628E-09 2.51891E-08 4.47978E-25
 -1       116 7.71541E-09 2.58992E-08 4.72417E-25
 -1       117 8.11702E-09 2.67142E-08 4.97008E-25
 -1       118 8.51882E-09 2.76477E-08 5.21610E-25
 -1       119 8.91824E-09 2.87136E-08 5.46067E-25
 -1       120 9.31252E-09 2.99264E-08 5.70208E-25
 -1       121 9.69873E-09 3.13002E-08 5.93857E-25
 -1       122 1.00740E-08 3.28490E-08 6.16834E-25
 -1       123 1.04356E-08 3.45851E-08 6.38976E-25
 -1       124 1.07813E-08 3.65185E-08 6.60145E-25
 -1       125 1.11096E-08 3.86553E-08 6.80246E-25
 -1       126 1.14199E-08 4.09951E-08 6.99244E-25
 -1       127 1.17124E-08 4.35286E-08 7.17151E-25
 -1       128 1.19870E-08 4.62327E-08 7.33968E-25
 -1       129 1.22406E-08 4.90660E-08 7.49497E-25
 -1       130 1.24595E-08 5.19589E-08 7.62902E-25
 -1       131 1.26179E-08 5.47348E-08 7.72600E-25
 -1       201 2.47130E-09 1.84072E-08 1.51318E-25
 -1       202 2.62412E-09 1.87524E-08 1.60676E-25
 -1       203 2.81768E-09 1.90615E-08 1.72527E-25
 -1       204 3.03754E-09 1.93432E-08 1.85990E-25
 -1       205 3.27667E-09 1.96088E-08 2.00632E-25
 -1       206 3.53098E-09 1.98675E-08 2.16203E-25
 -1       207 3.79776E-09 2.01279E-08 2.32538E-25
 -1       208 4.07510E-09 2.03979E-08 2.49519E-25
 -1       209 4.36158E-09 2.06857E-08 2.67061E-25
 -1       210 4.65609E-09 2.09996E-08 2.85094E-25
 -1       211 4.95769E-09 2.13479E-08 3.03561E-25
 -1       212 5.26550E-09 2.17397E-08 3.22408E-25
 -1       213 5.57863E-09 2.21841E-08 3.41581E-25
 -1       214 5.89616E-09 2.26911E-08 3.61024E-25
 -1       215 6.21706E-09 2.32710E-08 3.80673E-25
 -1       216 6.54023E-09 2.39350E-08 4.00460E-25
 -1       217 6.86442E-09 2.46948E-08 4.20310E-25
 -1       218 7.18829E-09 2.55627E-08 4.40141E-25
 -1       219 7.51041E-09 2.65516E-08 4.59865E-25
 -1       220 7.82931E-09 2.76747E-08 4.79391E-25
 -1       221 8.14348E-09 2.89457E-08 4.98628E-25
 -1       222 8.45150E-09 3.03779E-08 5.17488E-25
 -1       223 8.75205E-09 3.19843E-08 5.35891E-25
 -1       224 9.04388E-09 3.37767E-08 5.53760E-25
 -1       225 9.32579E-09 3.57650E-08 5.71021E-25
 -1       226 9.59613E-09 3.79565E-08 5.87574E-25
 -1       227 9.85186E-09 4.03555E-08 6.03233E-25
 -1       228 1.00861E-08 4.29627E-08 6.17577E-25
 -1       229 1.02828E-08 4.57786E-08 6.29621E-25
 -1       230 1.04033E-08 4.88112E-08 6.36996E-25
 -1       231 1.03168E-08 5.21434E-08 6.31699E-25
 -1       301 2.03999E-09 1.66817E-08 1.24909E-25
 -1       302 2.18889E-09 1.70482E-08 1.34027E-25
 -1       303 2.35928E-09 1.73581E-08 1.44459E-25
 -1       304 2.54886E-09 1.76368E-08 1.56068E-25
 -1       305 2.75312E-09 1.78970E-08 1.68575E-25
 -1       306 2.96872E-09 1.81488E-08 1.81776E-25
 -1       307 3.19326E-09 1.84009E-08 1.95524E-25
 -1       308 3.42498E-09 1.86612E-08 2.09713E-25
 -1       309 3.66253E-09 1.89373E-08 2.24258E-25
 -1       310 3.90487E-09 1.92368E-08 2.39096E-25
 -1       311 4.15112E-09 1.95676E-08 2.54175E-25
 -1       312 4.40054E-09 1.99378E-08 2.69447E-25
 -1       313 4.65244E-09 2.03558E-08 2.84870E-25
 -1       314 4.90617E-09 2.08305E-08 3.00406E-25
 -1       315 5.16109E-09 2.13716E-08 3.16015E-25
 -1       316 5.41654E-09 2.19889E-08 3.31656E-25
 -1       317 5.67188E-09 2.26932E-08 3.47291E-25
 -1       318 5.92644E-09 2.34957E-08 3.62878E-25
 -1       319 6.17957E-09 2.44082E-08 3.78377E-25
 -1       320 6.43062E-09 2.54431E-08 3.93749E-25
 -1       321 6.67895E-09 2.66131E-08 4.08954E-25
 -1       322 6.92392E-09 2.79312E-08 4.23954E-25
 -1       323 7.16479E-09 2.94106E-08 4.38702E-25
 -1       324 7.40055E-09 3.10643E-08 4.53138E-25
 -1       325 7.62953E-09 3.29052E-08 4.67158E-25
 -1       326 7.84870E-09 3.49461E-08 4.80578E-25
 -1       327 8.05220E-09 3.72000E-08 4.93039E-25
 -1       328 8.22874E-09 3.96827E-08 5.03849E-25
 -1       329 8.35647E-09 4.24174E-08 5.11670E-25
 -1       330 8.39236E-09 4.54495E-08 5.13867E-25
 -1       331 8.26533E-09 4.88764E-08 5.06088E-25
 -1       401 1.59003E-09 1.50191E-08 9.73583E-26
 -1       402 1.73345E-09 1.53893E-08 1.06140E-25
 -1       403 1.88969E-09 1.56987E-08 1.15706E-25
 -1       404 2.05587E-09 1.59718E-08 1.25881E-25
 -1       405 2.23043E-09 1.62243E-08 1.36570E-25
 -1       406 2.41161E-09 1.64669E-08 1.47663E-25
 -1       407 2.59785E-09 1.67085E-08 1.59067E-25
 -1       408 2.78787E-09 1.69567E-08 1.70702E-25
 -1       409 2.98062E-09 1.72188E-08 1.82504E-25
 -1       410 3.17526E-09 1.75019E-08 1.94422E-25
 -1       411 3.37109E-09 1.78131E-08 2.06413E-25
 -1       412 3.56755E-09 1.81598E-08 2.18442E-25
 -1       413 3.76415E-09 1.85497E-08 2.30480E-25
 -1       414 3.96051E-09 1.89908E-08 2.42503E-25
 -1       415 4.15628E-09 1.94918E-08 2.54491E-25
 -1       416 4.35120E-09 2.00617E-08 2.66425E-25
 -1       417 4.54503E-09 2.07101E-08 2.78294E-25
 -1       418 4.73762E-09 2.14472E-08 2.90086E-25
 -1       419 4.92884E-09 2.22839E-08 3.01794E-25
 -1       420 5.11860E-09 2.32316E-08 3.13413E-25
 -1       421 5.30679E-09 2.43023E-08 3.24937E-25
 -1       422 5.49324E-09 2.55085E-08 3.36353E-25
 -1       423 5.67752E-09 2.68635E-08 3.47636E-25
 -1       424 5.85870E-09 2.83811E-08 3.58730E-25
 -1       425 6.03488E-09 3.00759E-08 3.69518E-25
 -1       426 6.20243E-09 3.19643E-08 3.79777E-25
 -1       427 6.35467E-09 3.40650E-08 3.89099E-25
 -1       428 6.47993E-09 3.64017E-08 3.96768E-25
 -1       429 6.55838E-09 3.90080E-08 4.01572E-25
 -1       430 6.55887E-09 4.19363E-08 4.01601E-25
 -1       431 6.43626E-09 4.52734E-08 3.94094E-25
 -1       501 1.13913E-09 1.34198E-08 6.97494E-26
 -1       502 1.27785E-09 1.37817E-08 7.82432E-26
 -1       503 1.42128E-09 1.40838E-08 8.70254E-26
 -1       504 1.56793E-09 1.43484E-08 9.60051E-26
 -1       505 1.71705E-09 1.45906E-08 1.05136E-25
 -1       506 1.86801E-09 1.48218E-08 1.14379E-25
 -1       507 2.02010E-09 1.50507E-08 1.23692E-25
 -1       508 2.17263E-09 1.52847E-08 1.33031E-25
 -1       509 2.32494E-09 1.55308E-08 1.42357E-25
 -1       510 2.47648E-09 1.57953E-08 1.51636E-25
 -1       511 2.62680E-09 1.60850E-08 1.60840E-25
 -1       512 2.77555E-09 1.64065E-08 1.69948E-25
 -1       513 2.92247E-09 1.67666E-08 1.78944E-25
 -1       514 3.06739E-09 1.71727E-08 1.87817E-25
 -1       515 3.21025E-09 1.76324E-08 1.96564E-25
 -1       516 3.35106E-09 1.81540E-08 2.05186E-25
 -1       517 3.48994E-09 1.87460E-08 2.13690E-25
 -1       518 3.62709E-09 1.94177E-08 2.22088E-25
 -1       519 3.76279E-09 2.01790E-08 2.30397E-25
 -1       520 3.89734E-09 2.10404E-08 2.38635E-25
 -1       521 4.03103E-09 2.20132E-08 2.46821E-25
 -1       522 4.16405E-09 2.31093E-08 2.54966E-25
 -1       523 4.29629E-09 2.43419E-08 2.63063E-25
 -1       524 4.42708E-09 2.57249E-08 2.71072E-25
 -1       525 4.55479E-09 2.72743E-08 2.78892E-25
 -1       526 4.67619E-09 2.90078E-08 2.86325E-25
 -1       527 4.78552E-09 3.09471E-08 2.93019E-25
 -1       528 4.87333E-09 3.31194E-08 2.98395E-25
 -1       529 4.92511E-09 3.55607E-08 3.01566E-25
 -1       530 4.92025E-09 3.83214E-08 3.01268E-25
 -1       531 4.83282E-09 4.14732E-08 2.95915E-25
 -1       601 7.00423E-10 1.18817E-08 4.28871E-26
 -1       602 8.34550E-10 1.22264E-08 5.10998E-26
 -1       603 9.66285E-10 1.25148E-08 5.91660E-26
 -1       604 1.09551E-09 1.27665E-08 6.70782E-26
 -1       605 1.22229E-09 1.29958E-08 7.48413E-26
 -1       606 1.34667E-09 1.32132E-08 8.24571E-26
 -1       607 1.46855E-09 1.34273E-08 8.99199E-26
 -1       608 1.58773E-09 1.36451E-08 9.72174E-26
 -1       609 1.70396E-09 1.38730E-08 1.04334E-25
 -1       610 1.81700E-09 1.41172E-08 1.11256E-25
 -1       611 1.92666E-09 1.43835E-08 1.17970E-25
 -1       612 2.03279E-09 1.46780E-08 1.24469E-25
 -1       613 2.13537E-09 1.50068E-08 1.30749E-25
 -1       614 2.23444E-09 1.53764E-08 1.36816E-25
 -1       615 2.33017E-09 1.57938E-08 1.42677E-25
 -1       616 2.42283E-09 1.62661E-08 1.48351E-25
 -1       617 2.51281E-09 1.68012E-08 1.53860E-25
 -1       618 2.60058E-09 1.74073E-08 1.59235E-25
 -1       619 2.68676E-09 1.80934E-08 1.64511E-25
 -1       620 2.77196E-09 1.88692E-08 1.69728E-25
 -1       621 2.85686E-09 1.97451E-08 1.74926E-25
 -1       622 2.94200E-09 2.07324E-08 1.80140E-25
 -1       623 3.02771E-09 2.18437E-08 1.85388E-25
 -1       624 3.11386E-09 2.30930E-08 1.90662E-25
 -1       625 3.19952E-09 2.44961E-08 1.95908E-25
 -1       626 3.28261E-09 2.60716E-08 2.00995E-25
 -1       627 3.35929E-09 2.78416E-08 2.05691E-25
 -1       628 3.42342E-09 2.98337E-08 2.09617E-25
 -1       629 3.46605E-09 3.20828E-08 2.12227E-25
 -1       630 3.47545E-09 3.46343E-08 2.12803E-25
 -1       631 3.43811E-09 3.75470E-08 2.10517E-25
 -1       701 2.83880E-10 1.04017E-08 1.73821E-26
 -1       702 4.13681E-10 1.07221E-08 2.53298E-26
 -1       703 5.34700E-10 1.09911E-08 3.27399E-26
 -1       704 6.48256E-10 1.12258E-08 3.96929E-26
 -1       705 7.55218E-10 1.14389E-08 4.62422E-26
 -1       706 8.56163E-10 1.16400E-08 5.24232E-26
 -1       707 9.51440E-10 1.18371E-08 5.82570E-26
 -1       708 1.04123E-09 1.20367E-08 6.37550E-26
 -1       709 1.12562E-09 1.22447E-08 6.89221E-26
 -1       710 1.20464E-09 1.24667E-08 7.37605E-26
 -1       711 1.27834E-09 1.27080E-08 7.82730E-26
 -1       712 1.34680E-09 1.29739E-08 8.24649E-26
 -1       713 1.41018E-09 1.32700E-08 8.63460E-26
 -1       714 1.46875E-09 1.36019E-08 8.99318E-26
 -1       715 1.52285E-09 1.39758E-08 9.32445E-26
 -1       716 1.57298E-09 1.43981E-08 9.63141E-26
 -1       717 1.61976E-09 1.48757E-08 9.91783E-26
 -1       718 1.66392E-09 1.54159E-08 1.01883E-25
 -1       719 1.70634E-09 1.60269E-08 1.04480E-25
 -1       720 1.74798E-09 1.67174E-08 1.07029E-25
 -1       721 1.78983E-09 1.74969E-08 1.09592E-25
 -1       722 1.83290E-09 1.83760E-08 1.12229E-25
 -1       723 1.87806E-09 1.93665E-08 1.14994E-25
 -1       724 1.92590E-09 2.04818E-08 1.17923E-25
 -1       725 1.97655E-09 2.17373E-08 1.21025E-25
 -1       726 2.02944E-09 2.31508E-08 1.24263E-25
 -1       727 2.08306E-09 2.47440E-08 1.27546E-25
 -1       728 2.13471E-09 2.65428E-08 1.30709E-25
 -1       729 2.18048E-09 2.85794E-08 1.33511E-25
 -1       730 2.21557E-09 3.08935E-08 1.35660E-25
 -1       731 2.23517E-09 3.35337E-08 1.36860E-25
 -1       801-1.02113E-10 8.97538E-09-6.25239E-27
 -1       802 2.36642E-11 9.26606E-09 1.44897E-27
 -1       803 1.35020E-10 9.51089E-09 8.26730E-27
 -1       804 2.34606E-10 9.72463E-09 1.43650E-26
 -1       805 3.24061E-10 9.91834E-09 1.98424E-26
 -1       806 4.04447E-10 1.01007E-08 2.47644E-26
 -1       807 4.76472E-10 1.02786E-08 2.91745E-26
 -1       808 5.40617E-10 1.04581E-08 3.31022E-26
 -1       809 5.97224E-10 1.06445E-08 3.65682E-26
 -1       810 6.46559E-10 1.08427E-08 3.95890E-26
 -1       811 6.88873E-10 1.10574E-08 4.21799E-26
 -1       812 7.24444E-10 1.12933E-08 4.43579E-26
 -1       813 7.53610E-10 1.15553E-08 4.61438E-26
 -1       814 7.76803E-10 1.18484E-08 4.75639E-26
 -1       815 7.94567E-10 1.21779E-08 4.86516E-26
 -1       816 8.07578E-10 1.25494E-08 4.94483E-26
 -1       817 8.16657E-10 1.29689E-08 5.00041E-26
 -1       818 8.22776E-10 1.34429E-08 5.03789E-26
 -1       819 8.27062E-10 1.39787E-08 5.06413E-26
 -1       820 8.30782E-10 1.45839E-08 5.08690E-26
 -1       821 8.35323E-10 1.52672E-08 5.11471E-26
 -1       822 8.42155E-10 1.60382E-08 5.15654E-26
 -1       823 8.52774E-10 1.69077E-08 5.22156E-26
 -1       824 8.68628E-10 1.78882E-08 5.31864E-26
 -1       825 8.91029E-10 1.89938E-08 5.45580E-26
 -1       826 9.21065E-10 2.02414E-08 5.63971E-26
 -1       827 9.59528E-10 2.16507E-08 5.87522E-26
 -1       828 1.00692E-09 2.32455E-08 6.16542E-26
 -1       829 1.06361E-09 2.50542E-08 6.51253E-26
 -1       830 1.13019E-09 2.71110E-08 6.92017E-26
 -1       831 1.20817E-09 2.94563E-08 7.39763E-26
 -1       901-4.50450E-10 7.59786E-09-2.75812E-26
 -1       902-3.28327E-10 7.85430E-09-2.01035E-26
 -1       903-2.25514E-10 8.07095E-09-1.38083E-26
 -1       904-1.38169E-10 8.26031E-09-8.46014E-27
 -1       905-6.39566E-11 8.43181E-09-3.91608E-27
 -1       906-1.37327E-12 8.59288E-09-8.40856E-29
 -1       907 5.05974E-11 8.74962E-09 3.09809E-27
 -1       908 9.26765E-11 8.90723E-09 5.67461E-27
 -1       909 1.25409E-10 9.07033E-09 7.67885E-27
 -1       910 1.49247E-10 9.24320E-09 9.13847E-27
 -1       911 1.64610E-10 9.42996E-09 1.00791E-26
 -1       912 1.71934E-10 9.63467E-09 1.05276E-26
 -1       913 1.71712E-10 9.86148E-09 1.05140E-26
 -1       914 1.64526E-10 1.01147E-08 1.00740E-26
 -1       915 1.51079E-10 1.03988E-08 9.25062E-27
 -1       916 1.32213E-10 1.07188E-08 8.09547E-27
 -1       917 1.08934E-10 1.10796E-08 6.67003E-27
 -1       918 8.24231E-11 1.14871E-08 5.04680E-27
 -1       919 5.40563E-11 1.19473E-08 3.30989E-27
 -1       920 2.54037E-11 1.24671E-08 1.55548E-27
 -1       921-1.76482E-12 1.30541E-08-1.08060E-28
 -1       922-2.54855E-11 1.37167E-08-1.56049E-27
 -1       923-4.36084E-11 1.44646E-08-2.67016E-27
 -1       924-5.38084E-11 1.53089E-08-3.29471E-27
 -1       925-5.35890E-11 1.62623E-08-3.28127E-27
 -1       926-4.02682E-11 1.73400E-08-2.46563E-27
 -1       927-1.09254E-11 1.85593E-08-6.68966E-28
 -1       928 3.77196E-11 1.99413E-08 2.30958E-27
 -1       929 1.09533E-10 2.15103E-08 6.70676E-27
 -1       930 2.09332E-10 2.32953E-08 1.28175E-26
 -1       931 3.43405E-10 2.53297E-08 2.10268E-26
 -1      1001-7.55118E-10 6.26336E-09-4.62361E-26
 -1      1002-6.36215E-10 6.48198E-09-3.89557E-26
 -1      1003-5.40755E-10 6.66718E-09-3.31106E-26
 -1      1004-4.63876E-10 6.82925E-09-2.84033E-26
 -1      1005-4.02631E-10 6.97602E-09-2.46532E-26
 -1      1006-3.55131E-10 7.11369E-09-2.17448E-26
 -1      1007-3.20097E-10 7.24736E-09-1.95996E-26
 -1      1008-2.96608E-10 7.38141E-09-1.81614E-26
 -1      1009-2.83956E-10 7.51975E-09-1.73867E-26
 -1      1010-2.81546E-10 7.66598E-09-1.72392E-26
 -1      1011-2.88823E-10 7.82357E-09-1.76847E-26
 -1      1012-3.05224E-10 7.99593E-09-1.86889E-26
 -1      1013-3.30128E-10 8.18654E-09-2.02138E-26
 -1      1014-3.62826E-10 8.39898E-09-2.22159E-26
 -1      1015-4.02481E-10 8.63704E-09-2.46441E-26
 -1      1016-4.48107E-10 8.90474E-09-2.74377E-26
 -1      1017-4.98533E-10 9.20643E-09-3.05253E-26
 -1      1018-5.52386E-10 9.54686E-09-3.38228E-26
 -1      1019-6.08059E-10 9.93122E-09-3.72317E-26
 -1      1020-6.63695E-10 1.03653E-08-4.06382E-26
 -1      1021-7.17154E-10 1.08555E-08-4.39116E-26
 -1      1022-7.65996E-10 1.14092E-08-4.69022E-26
 -1      1023-8.07441E-10 1.20346E-08-4.94399E-26
 -1      1024-8.38336E-10 1.27412E-08-5.13316E-26
 -1      1025-8.55088E-10 1.35401E-08-5.23573E-26
 -1      1026-8.53587E-10 1.44441E-08-5.22654E-26
 -1      1027-8.29075E-10 1.54683E-08-5.07645E-26
 -1      1028-7.75960E-10 1.66301E-08-4.75123E-26
 -1      1029-6.87554E-10 1.79503E-08-4.20991E-26
 -1      1030-5.55735E-10 1.94524E-08-3.40278E-26
 -1      1031-3.70521E-10 2.11641E-08-2.26871E-26
 -1      1101-1.01111E-09 4.96552E-09-6.19104E-26
 -1      1102-8.94933E-10 5.14353E-09-5.47970E-26
 -1      1103-8.05576E-10 5.29466E-09-4.93257E-26
 -1      1104-7.37335E-10 5.42708E-09-4.51473E-26
 -1      1105-6.86756E-10 5.54702E-09-4.20503E-26
 -1      1106-6.51626E-10 5.65942E-09-3.98992E-26
 -1      1107-6.30443E-10 5.76838E-09-3.86022E-26
 -1      1108-6.22128E-10 5.87743E-09-3.80931E-26
 -1      1109-6.25842E-10 5.98972E-09-3.83205E-26
 -1      1110-6.40878E-10 6.10816E-09-3.92411E-26
 -1      1111-6.66577E-10 6.23554E-09-4.08147E-26
 -1      1112-7.02275E-10 6.37461E-09-4.30005E-26
 -1      1113-7.47253E-10 6.52816E-09-4.57546E-26
 -1      1114-8.00697E-10 6.69906E-09-4.90269E-26
 -1      1115-8.61660E-10 6.89035E-09-5.27597E-26
 -1      1116-9.29031E-10 7.10526E-09-5.68849E-26
 -1      1117-1.00150E-09 7.34729E-09-6.13222E-26
 -1      1118-1.07753E-09 7.62026E-09-6.59773E-26
 -1      1119-1.15530E-09 7.92837E-09-7.07393E-26
 -1      1120-1.23270E-09 8.27631E-09-7.54784E-26
 -1      1121-1.30725E-09 8.66932E-09-8.00433E-26
 -1      1122-1.37609E-09 9.11336E-09-8.42582E-26
 -1      1123-1.43587E-09 9.61521E-09-8.79186E-26
 -1      1124-1.48271E-09 1.01827E-08-9.07865E-26
 -1      1125-1.51207E-09 1.08248E-08-9.25843E-26
 -1      1126-1.51864E-09 1.15520E-08-9.29866E-26
 -1      1127-1.49615E-09 1.23766E-08-9.16096E-26
 -1      1128-1.43716E-09 1.33127E-08-8.79975E-26
 -1      1129-1.33276E-09 1.43767E-08-8.16053E-26
 -1      1130-1.17228E-09 1.55877E-08-7.17788E-26
 -1      1131-9.42855E-10 1.69674E-08-5.77313E-26
 -1      1201-1.21437E-09 3.69755E-09-7.43561E-26
 -1      1202-1.10038E-09 3.83282E-09-6.73764E-26
 -1      1203-1.01582E-09 3.94787E-09-6.21989E-26
 -1      1204-9.54346E-10 4.04878E-09-5.84349E-26
 -1      1205-9.12101E-10 4.14019E-09-5.58482E-26
 -1      1206-8.86614E-10 4.22582E-09-5.42876E-26
 -1      1207-8.76209E-10 4.30873E-09-5.36506E-26
 -1      1208-8.79682E-10 4.39159E-09-5.38632E-26
 -1      1209-8.96094E-10 4.47677E-09-5.48681E-26
 -1      1210-9.24653E-10 4.56647E-09-5.66168E-26
 -1      1211-9.64623E-10 4.66278E-09-5.90642E-26
 -1      1212-1.01527E-09 4.76778E-09-6.21651E-26
 -1      1213-1.07579E-09 4.88356E-09-6.58707E-26
 -1      1214-1.14529E-09 5.01230E-09-7.01262E-26
 -1      1215-1.22274E-09 5.15627E-09-7.48685E-26
 -1      1216-1.30693E-09 5.31791E-09-8.00235E-26
 -1      1217-1.39643E-09 5.49984E-09-8.55040E-26
 -1      1218-1.48957E-09 5.70496E-09-9.12070E-26
 -1      1219-1.58437E-09 5.93644E-09-9.70112E-26
 -1      1220-1.67848E-09 6.19783E-09-1.02774E-25
 -1      1221-1.76915E-09 6.49313E-09-1.08326E-25
 -1      1222-1.85317E-09 6.82687E-09-1.13470E-25
 -1      1223-1.92671E-09 7.20423E-09-1.17973E-25
 -1      1224-1.98531E-09 7.63116E-09-1.21561E-25
 -1      1225-2.02367E-09 8.11454E-09-1.23910E-25
 -1      1226-2.03552E-09 8.66234E-09-1.24635E-25
 -1      1227-2.01343E-09 9.28380E-09-1.23283E-25
 -1      1228-1.94854E-09 9.98965E-09-1.19310E-25
 -1      1229-1.83029E-09 1.07922E-08-1.12069E-25
 -1      1230-1.64606E-09 1.17058E-08-1.00789E-25
 -1      1231-1.38085E-09 1.27465E-08-8.45496E-26
 -1      1301-1.36177E-09 2.45229E-09-8.33816E-26
 -1      1302-1.24937E-09 2.54329E-09-7.64995E-26
 -1      1303-1.16827E-09 2.62078E-09-7.15338E-26
 -1      1304-1.11166E-09 2.68881E-09-6.80674E-26
 -1      1305-1.07539E-09 2.75044E-09-6.58465E-26
 -1      1306-1.05681E-09 2.80816E-09-6.47085E-26
 -1      1307-1.05411E-09 2.86401E-09-6.45432E-26
 -1      1308-1.06599E-09 2.91977E-09-6.52711E-26
 -1      1309-1.09146E-09 2.97701E-09-6.68305E-26
 -1      1310-1.12966E-09 3.03723E-09-6.91694E-26
 -1      1311-1.17980E-09 3.10181E-09-7.22393E-26
 -1      1312-1.24108E-09 3.17214E-09-7.59917E-26
 -1      1313-1.31266E-09 3.24964E-09-8.03748E-26
 -1      1314-1.39359E-09 3.33573E-09-8.53301E-26
 -1      1315-1.48277E-09 3.43195E-09-9.07907E-26
 -1      1316-1.57893E-09 3.53993E-09-9.66781E-26
 -1      1317-1.68054E-09 3.66142E-09-1.02900E-25
 -1      1318-1.78583E-09 3.79836E-09-1.09347E-25
 -1      1319-1.89269E-09 3.95288E-09-1.15890E-25
 -1      1320-1.99861E-09 4.12737E-09-1.22376E-25
 -1      1321-2.10064E-09 4.32452E-09-1.28623E-25
 -1      1322-2.19528E-09 4.54738E-09-1.34418E-25
 -1      1323-2.27839E-09 4.79944E-09-1.39506E-25
 -1      1324-2.34503E-09 5.08471E-09-1.43587E-25
 -1      1325-2.38937E-09 5.40784E-09-1.46302E-25
 -1      1326-2.40447E-09 5.77418E-09-1.47226E-25
 -1      1327-2.38205E-09 6.18994E-09-1.45854E-25
 -1      1328-2.31227E-09 6.66229E-09-1.41581E-25
 -1      1329-2.18339E-09 7.19948E-09-1.33690E-25
 -1      1330-1.98146E-09 7.81100E-09-1.21325E-25
 -1      1331-1.68993E-09 8.50762E-09-1.03475E-25
 -1      1401-1.45110E-09 1.22230E-09-8.88511E-26
 -1      1402-1.33967E-09 1.26804E-09-8.20284E-26
 -1      1403-1.26066E-09 1.30703E-09-7.71906E-26
 -1      1404-1.20697E-09 1.34126E-09-7.39033E-26
 -1      1405-1.17430E-09 1.37229E-09-7.19025E-26
 -1      1406-1.15986E-09 1.40134E-09-7.10184E-26
 -1      1407-1.16178E-09 1.42944E-09-7.11363E-26
 -1      1408-1.17872E-09 1.45747E-09-7.21733E-26
 -1      1409-1.20962E-09 1.48623E-09-7.40652E-26
 -1      1410-1.25359E-09 1.51647E-09-7.67577E-26
 -1      1411-1.30982E-09 1.54887E-09-8.02004E-26
 -1      1412-1.37747E-09 1.58414E-09-8.43431E-26
 -1      1413-1.45568E-09 1.62298E-09-8.91317E-26
 -1      1414-1.54345E-09 1.66611E-09-9.45059E-26
 -1      1415-1.63965E-09 1.71429E-09-1.00396E-25
 -1      1416-1.74296E-09 1.76835E-09-1.06722E-25
 -1      1417-1.85181E-09 1.82916E-09-1.13387E-25
 -1      1418-1.96436E-09 1.89769E-09-1.20278E-25
 -1      1419-2.07842E-09 1.97501E-09-1.27262E-25
 -1      1420-2.19138E-09 2.06233E-09-1.34179E-25
 -1      1421-2.30016E-09 2.16098E-09-1.40839E-25
 -1      1422-2.40109E-09 2.27253E-09-1.47019E-25
 -1      1423-2.48981E-09 2.39871E-09-1.52452E-25
 -1      1424-2.56113E-09 2.54155E-09-1.56819E-25
 -1      1425-2.60889E-09 2.70338E-09-1.59743E-25
 -1      1426-2.62572E-09 2.88689E-09-1.60774E-25
 -1      1427-2.60287E-09 3.09521E-09-1.59374E-25
 -1      1428-2.52988E-09 3.33191E-09-1.54905E-25
 -1      1429-2.39434E-09 3.60115E-09-1.46606E-25
 -1      1430-2.18150E-09 3.90764E-09-1.33574E-25
 -1      1431-1.87390E-09 4.25679E-09-1.14740E-25
 -1      1501-1.48102E-09 0.00000E+00-9.06833E-26
 -1      1502-1.36992E-09 0.00000E+00-8.38805E-26
 -1      1503-1.29161E-09 0.00000E+00-7.90854E-26
 -1      1504-1.23890E-09 0.00000E+00-7.58580E-26
 -1      1505-1.20742E-09 0.00000E+00-7.39306E-26
 -1      1506-1.19436E-09 0.00000E+00-7.31312E-26
 -1      1507-1.19783E-09 0.00000E+00-7.33435E-26
 -1      1508-1.21645E-09 0.00000E+00-7.44836E-26
 -1      1509-1.24916E-09 0.00000E+00-7.64863E-26
 -1      1510-1.29505E-09 0.00000E+00-7.92966E-26
 -1      1511-1.35331E-09 0.00000E+00-8.28635E-26
 -1      1512-1.42309E-09 0.00000E+00-8.71361E-26
 -1      1513-1.50350E-09 0.00000E+00-9.20597E-26
 -1      1514-1.59355E-09 0.00000E+00-9.75734E-26
 -1      1515-1.69209E-09 0.00000E+00-1.03607E-25
 -1      1516-1.79778E-09 0.00000E+00-1.10078E-25
 -1      1517-1.90904E-09 0.00000E+00-1.16891E-25
 -1      1518-2.02400E-09 0.00000E+00-1.23930E-25
 -1      1519-2.14045E-09 0.00000E+00-1.31060E-25
 -1      1520-2.25575E-09 0.00000E+00-1.38120E-25
 -1      1521-2.36676E-09 0.00000E+00-1.44918E-25
 -1      1522-2.46977E-09 0.00000E+00-1.51225E-25
 -1      1523-2.56035E-09 0.00000E+00-1.56771E-25
 -1      1524-2.63321E-09 0.00000E+00-1.61232E-25
 -1      1525-2.68208E-09 0.00000E+00-1.64225E-25
 -1      1526-2.69946E-09 0.00000E+00-1.65289E-25
 -1      1527-2.67641E-09 0.00000E+00-1.63878E-25
 -1      1528-2.60231E-09 0.00000E+00-1.59340E-25
 -1      1529-2.46451E-09 0.00000E+00-1.50903E-25
 -1      1530-2.24798E-09 0.00000E+00-1.37645E-25
 -1      1531-1.93498E-09 0.00000E+00-1.18479E-25
 -3
    1PSTEP                         4           2           1          
  100CL  102 2.00000E-01         496                     0    2           1
 -4  STRESS      6    1
 -5  SXX         1    4    1    1
 -5  SYY         1    4    2    2
 -5  SZZ         1    4    3    3
 -5  SXY         1    4    1    2
 -5  SYZ         1    4    2    3
 -5  SZX         1    4    3    1
 -1         1 7.15041E+03-9.26372E+04 5.13844E+04-9.53036E+02 9.36494E-10-4.05946E-11
 -1         2 7.44400E+03-9.48401E+04 4.26316E+04-8.00021E+02-1.45085E-10 4.22402E-11
 -1         3 1.28271E+04-9.43525E+04 3.91714E+04-1.39254E+03 2.74412E-10-4.95605E-11
 -1         4 1.72809E+04-9.40681E+04 3.71140E+04-2.02460E+03 2.15256E-10 3.72828E-11
 -1         5 2.14644E+04-9.37884E+04 3.61202E+04-2.63726E+03 5.53351E-10 1.24670E-10
 -1         6 2.56537E+04-9.34318E+04 3.59540E+04-3.19470E+03 3.80797E-10-3.48931E-11
 -1         7 2.99591E+04-9.29772E+04 3.64423E+04-3.68368E+03 9.73462E-11-2.67617E-11
 -1         8 3.44202E+04-9.24254E+04 3.74566E+04-4.10240E+03-1.96873E-10-1.59387E-10
 -1         9 3.90437E+04-9.17852E+04 3.89000E+04-4.45218E+03 3.76988E-11-8.89072E-11
 -1        10 4.38190E+04-9.10670E+04 4.06970E+04-4.73370E+03 1.82803E-10 4.26177E-11
 -1        11 4.87244E+04-9.02815E+04 4.27862E+04-4.94536E+03 2.22640E-11 1.03947E-10
 -1        12 5.37281E+04-8.94393E+04 4.51150E+04-5.08262E+03-1.74991E-10 2.52898E-11
 -1        13 5.87876E+04-8.85518E+04 4.76351E+04-5.13767E+03-3.20332E-11 1.25881E-10
 -1        14 6.38472E+04-8.76319E+04 5.02989E+04-5.09934E+03-2.97603E-10-6.80931E-11
 -1        15 6.88356E+04-8.66954E+04 5.30565E+04-4.95287E+03-6.68101E-11 4.59719E-11
 -1        16 7.36613E+04-8.57623E+04 5.58524E+04-4.67989E+03 5.43137E-10 3.94882E-11
 -1        17 7.82090E+04-8.48583E+04 5.86225E+04-4.25829E+03-4.54513E-11-3.03488E-11
 -1        18 8.23339E+04-8.40166E+04 6.12913E+04-3.66234E+03-3.98014E-10 9.18966E-13
 -1        19 8.58564E+04-8.32796E+04 6.37684E+04-2.86301E+03 8.91826E-11 2.55678E-11
 -1        20 8.85555E+04-8.27008E+04 6.59455E+04-1.82900E+03-4.00744E-10-1.40397E-10
 -1        21 9.01631E+04-8.23459E+04 6.76929E+04-5.28834E+02-1.91367E-10-1.73632E-12
 -1        22 9.03594E+04-8.22922E+04 6.88580E+04 1.06491E+03 3.91735E-11 2.54608E-11
 -1        23 8.87725E+04-8.26252E+04 6.92651E+04 2.96763E+03 1.97315E-10 3.83985E-11
 -1        24 8.49877E+04-8.34269E+04 6.87211E+04 5.16773E+03-3.88720E-10-1.69335E-10
 -1        25 7.85764E+04-8.47486E+04 6.70322E+04 7.59874E+03 6.54619E-10 2.58378E-10
 -1        26 6.91649E+04-8.65527E+04 6.40427E+04 1.00869E+04 8.23597E-10 1.37829E-10
 -1        27 5.65837E+04-8.85872E+04 5.97192E+04 1.22499E+04-7.99676E-11 1.56689E-10
 -1        28 4.11789E+04-9.01241E+04 5.43284E+04 1.33016E+04-1.79152E-10 7.39724E-11
 -1        29 2.44514E+04-8.94251E+04 4.88005E+04 1.16939E+04-4.69265E-10 1.64290E-11
 -1        30 1.08216E+04-8.25748E+04 4.56324E+04 5.52329E+03 3.27302E-10 5.48825E-11
 -1        31 9.69444E+03-6.67827E+04 4.85866E+04 1.37858E+03 1.38214E-10 2.73394E-10
 -1       101 2.84844E+03-9.92007E+04 2.26235E+04-2.66487E+02-2.36641E-10-9.88678E-11
 -1       102 3.24680E+03-9.94768E+04 1.90770E+04-1.08457E+03 1.32052E-10-8.25946E-12
 -1       103 5.43241E+03-9.92635E+04 1.73748E+04-2.38583E+03-3.51723E-10-1.90775E-11
 -1       104 7.27936E+03-9.93273E+04 1.62925E+04-3.52895E+03 7.63946E-11 9.91441E-12
 -1       105 8.83803E+03-9.95675E+04 1.55910E+04-4.52093E+03-3.01774E-10-6.05893E-11
 -1       106 1.01752E+04-9.99248E+04 1.51371E+04-5.37458E+03-4.22795E-11-1.45845E-12
 -1       107 1.13500E+04-1.00364E+05 1.48526E+04-6.10182E+03-3.12671E-10-4.80322E-11
 -1       108 1.24031E+04-1.00867E+05 1.46865E+04-6.71029E+03 1.25583E-10 4.76637E-11
 -1       109 1.33571E+04-1.01426E+05 1.46032E+04-7.20364E+03 1.91699E-11 1.86723E-11
 -1       110 1.42202E+04-1.02040E+05 1.45750E+04-7.58141E+03-1.35126E-10-1.52655E-11
 -1       111 1.49896E+04-1.02710E+05 1.45788E+04-7.83890E+03-1.45971E-10-6.76762E-11
 -1       112 1.56537E+04-1.03443E+05 1.45942E+04-7.96711E+03-1.40181E-10-8.27444E-11
 -1       113 1.61945E+04-1.04241E+05 1.46026E+04-7.95269E+03 1.01860E-10-4.68650E-11
 -1       114 1.65896E+04-1.05113E+05 1.45861E+04-7.77797E+03 1.28251E-11 2.33823E-11
 -1       115 1.68126E+04-1.06062E+05 1.45278E+04-7.42100E+03-3.64931E-11-7.60125E-11
 -1       116 1.68358E+04-1.07094E+05 1.44119E+04-6.85561E+03-1.32524E-10-1.99955E-11
 -1       117 1.66313E+04-1.08209E+05 1.42238E+04-6.05174E+03 4.24894E-11 2.50733E-11
 -1       118 1.61735E+04-1.09406E+05 1.39512E+04-4.97593E+03 1.50070E-13-7.18490E-11
 -1       119 1.54425E+04-1.10678E+05 1.35852E+04-3.59231E+03 7.02659E-11 3.49996E-11
 -1       120 1.44281E+04-1.12009E+05 1.31223E+04-1.86442E+03 5.18976E-11 9.38096E-12
 -1       121 1.31358E+04-1.13371E+05 1.25669E+04 2.41873E+02-9.70738E-11 4.01019E-11
 -1       122 1.15935E+04-1.14716E+05 1.19343E+04 2.75326E+03 2.62597E-11-6.37155E-11
 -1       123 9.85989E+03-1.15970E+05 1.12558E+04 5.68096E+03 3.79782E-11 2.44984E-11
 -1       124 8.03154E+03-1.17012E+05 1.05829E+04 9.00758E+03 4.61400E-11-1.18553E-11
 -1       125 6.24629E+03-1.17656E+05 9.99323E+03 1.26661E+04-7.28935E-11-3.38061E-11
 -1       126 4.67256E+03-1.17611E+05 9.59378E+03 1.65065E+04-2.15904E-10-9.32403E-11
 -1       127 3.46454E+03-1.16412E+05 9.51921E+03 2.02413E+04 3.16266E-10-2.43729E-11
 -1       128 2.64080E+03-1.13300E+05 9.91645E+03 2.33514E+04 2.00745E-11-8.46199E-11
 -1       129 1.82471E+03-1.06988E+05 1.09063E+04 2.48842E+04-6.82800E-11-1.28911E-11
 -1       130 4.06605E+02-9.55239E+04 1.26794E+04 2.18867E+04-4.65220E-11-2.73044E-11
 -1       131 3.23779E+03-6.85467E+04 1.73232E+04 1.62393E+04 1.61975E-10-2.79513E-12
 -1       201 1.18674E+03-9.60902E+04 1.51669E+04-5.65813E+02-3.48797E-11-1.67082E-11
 -1       202 2.32865E+03-9.51606E+04 1.32350E+04-1.67255E+03-2.77058E-10-2.00443E-11
 -1       203 4.29415E+03-9.48926E+04 1.21580E+04-3.25120E+03 1.77492E-11 2.86863E-11
 -1       204 5.60456E+03-9.49589E+04 1.14386E+04-4.61981E+03-1.66538E-11-1.21025E-11
 -1       205 6.58192E+03-9.51791E+04 1.09515E+04-5.78192E+03-2.20096E-10-3.91733E-11
 -1       206 7.35919E+03-9.54692E+04 1.06210E+04-6.78082E+03 8.77916E-11-1.03461E-12
 -1       207 8.00201E+03-9.57928E+04 1.03986E+04-7.63581E+03-7.22039E-11 2.54914E-11
 -1       208 8.54812E+03-9.61369E+04 1.02521E+04-8.35571E+03-5.18128E-11 5.60932E-12
 -1       209 9.01958E+03-9.65009E+04 1.01591E+04-8.94235E+03 1.07711E-10 4.19340E-11
 -1       210 9.42831E+03-9.68916E+04 1.01034E+04-9.39244E+03 9.88409E-12 9.23169E-12
 -1       211 9.77915E+03-9.73191E+04 1.00721E+04-9.69812E+03 1.13917E-10 2.99277E-12
 -1       212 1.00719E+04-9.77963E+04 1.00549E+04-9.84722E+03-7.53805E-11-1.41787E-11
 -1       213 1.03026E+04-9.83373E+04 1.00430E+04-9.82326E+03 2.73655E-11 4.64117E-11
 -1       214 1.04649E+04-9.89576E+04 1.00283E+04-9.60553E+03-6.22064E-11-9.47722E-12
 -1       215 1.05505E+04-9.96736E+04 1.00035E+04-9.16913E+03-3.89307E-11 1.65905E-11
 -1       216 1.05504E+04-1.00503E+05 9.96183E+03-8.48528E+03-1.20345E-10-3.09410E-11
 -1       217 1.04555E+04-1.01462E+05 9.89671E+03-7.52177E+03 5.93387E-11 2.57186E-11
 -1       218 1.02578E+04-1.02568E+05 9.80226E+03-6.24378E+03-1.51048E-11-1.54196E-12
 -1       219 9.95099E+03-1.03836E+05 9.67328E+03-4.61529E+03-8.17961E-11-1.86756E-11
 -1       220 9.53218E+03-1.05276E+05 9.50576E+03-2.60134E+03 1.02727E-10 2.40461E-11
 -1       221 9.00275E+03-1.06889E+05 9.29742E+03-1.71413E+02 3.04045E-10 5.18964E-11
 -1       222 8.36935E+03-1.08658E+05 9.04867E+03 2.69540E+03-2.47956E-10-5.90442E-11
 -1       223 7.64369E+03-1.10538E+05 8.76387E+03 6.00282E+03 4.96508E-11 5.16429E-11
 -1       224 6.83989E+03-1.12433E+05 8.45314E+03 9.72670E+03 3.50581E-10 5.71559E-11
 -1       225 5.96594E+03-1.14157E+05 8.13500E+03 1.38003E+04 3.48942E-11-2.61971E-12
 -1       226 5.00291E+03-1.15371E+05 7.83996E+03 1.80954E+04-3.15527E-12-1.15495E-11
 -1       227 3.85698E+03-1.15463E+05 7.61574E+03 2.24009E+04 1.44901E-10 1.48831E-11
 -1       228 2.24554E+03-1.13323E+05 7.53453E+03 2.64082E+04-2.02678E-10-2.08834E-11
 -1       229-5.93224E+02-1.06896E+05 7.69957E+03 2.97041E+04 9.10061E-11 1.84069E-11
 -1       230-7.69543E+03-9.15126E+04 8.21160E+03 3.20978E+04-1.37813E-10 2.38382E-11
 -1       231-1.10134E+04-6.28811E+04 1.00943E+04 3.04713E+04 4.81363E-11-6.03243E-11
 -1       301 8.68440E+02-9.36660E+04 1.10815E+04-1.10464E+03-2.49084E-10-4.63281E-12
 -1       302 1.47406E+03-9.29174E+04 9.69274E+03-1.97471E+03 3.42190E-10 1.39776E-11
 -1       303 2.66011E+03-9.28358E+04 8.83144E+03-3.62831E+03-2.85605E-10-2.88884E-11
 -1       304 3.63230E+03-9.30307E+04 8.26181E+03-4.94155E+03 3.98715E-11-7.32850E-12
 -1       305 4.36094E+03-9.33650E+04 7.86813E+03-6.06480E+03 2.54813E-10 4.53204E-11
 -1       306 4.91344E+03-9.37699E+04 7.58889E+03-7.03083E+03-8.98168E-11-2.29865E-11
 -1       307 5.33858E+03-9.42143E+04 7.38606E+03-7.85873E+03-9.66140E-12-4.21238E-11
 -1       308 5.66798E+03-9.46880E+04 7.23461E+03-8.55599E+03 1.75807E-11-1.97895E-11
 -1       309 5.92190E+03-9.51922E+04 7.11722E+03-9.12319E+03-4.10311E-11-1.04444E-11
 -1       310 6.11300E+03-9.57351E+04 7.02126E+03-9.55588E+03-1.19814E-10-5.77410E-11
 -1       311 6.24857E+03-9.63292E+04 6.93710E+03-9.84545E+03 3.67717E-11 2.34018E-11
 -1       312 6.33209E+03-9.69897E+04 6.85695E+03-9.97950E+03 2.90612E-11 8.32473E-12
 -1       313 6.36432E+03-9.77335E+04 6.77427E+03-9.94197E+03-9.22119E-11 1.91229E-11
 -1       314 6.34416E+03-9.85789E+04 6.68331E+03-9.71328E+03 1.00672E-10 2.12533E-11
 -1       315 6.26942E+03-9.95451E+04 6.57889E+03-9.27038E+03 4.83177E-11-1.79157E-11
 -1       316 6.13741E+03-1.00652E+05 6.45631E+03-8.58707E+03-2.98854E-11 3.16289E-11
 -1       317 5.94552E+03-1.01918E+05 6.31129E+03-7.63443E+03-1.54911E-10-3.78186E-11
 -1       318 5.69169E+03-1.03363E+05 6.14010E+03-6.38156E+03-6.01824E-12-1.26631E-11
 -1       319 5.37471E+03-1.05002E+05 5.93965E+03-4.79669E+03-6.64594E-11 7.74630E-12
 -1       320 4.99436E+03-1.06843E+05 5.70782E+03-2.84896E+03 7.03114E-11-1.19625E-13
 -1       321 4.55078E+03-1.08886E+05 5.44377E+03-5.10774E+02 1.14053E-10-5.15193E-12
 -1       322 4.04295E+03-1.11112E+05 5.14842E+03 2.23881E+03 1.60492E-10 3.70884E-11
 -1       323 3.46497E+03-1.13472E+05 4.82511E+03 5.40979E+03-2.70528E-10-7.81346E-11
 -1       324 2.79861E+03-1.15870E+05 4.48026E+03 8.99610E+03-8.49417E-11 9.29929E-12
 -1       325 1.99873E+03-1.18132E+05 4.12425E+03 1.29706E+04-7.93550E-11 2.64228E-11
 -1       326 9.65804E+02-1.19957E+05 3.77212E+03 1.72830E+04 1.23272E-10 9.18779E-12
 -1       327-5.06728E+02-1.20841E+05 3.44389E+03 2.18682E+04-7.40922E-11 1.55037E-11
 -1       328-2.83310E+03-1.19941E+05 3.16361E+03 2.66855E+04 2.63966E-10 3.42434E-11
 -1       329-6.86036E+03-1.15814E+05 2.95479E+03 3.18652E+04 8.83531E-11-3.79843E-12
 -1       330-1.38750E+04-1.05951E+05 2.87039E+03 3.81611E+04 7.29361E-11-1.83057E-11
 -1       331-1.80497E+04-9.65250E+04 2.76660E+03 4.19239E+04 8.68090E-11 7.83062E-11
 -1       401 5.11629E+02-9.05906E+04 6.87005E+03-1.14385E+03 1.21513E-11-7.18922E-12
 -1       402 8.26621E+02-9.06086E+04 5.98133E+03-2.10453E+03-2.03870E-10-9.70545E-12
 -1       403 1.47644E+03-9.07395E+04 5.43414E+03-3.79380E+03 8.47486E-11 3.38850E-11
 -1       404 1.97627E+03-9.10843E+04 5.04449E+03-5.10334E+03-1.43856E-10-2.11027E-11
 -1       405 2.36732E+03-9.15403E+04 4.76171E+03-6.18449E+03 1.40337E-10-2.12178E-11
 -1       406 2.65075E+03-9.20611E+04 4.54687E+03-7.10466E+03 2.36097E-11 3.35312E-12
 -1       407 2.84210E+03-9.26248E+04 4.37520E+03-7.88913E+03-1.65727E-10-1.26687E-11
 -1       408 2.95682E+03-9.32253E+04 4.23009E+03-8.54785E+03 1.09156E-10 7.18645E-12
 -1       409 3.00742E+03-9.38666E+04 4.09994E+03-9.08201E+03-7.15819E-11-4.41463E-11
 -1       410 3.00329E+03-9.45589E+04 3.97622E+03-9.48726E+03 1.75237E-11 1.12585E-11
 -1       411 2.95121E+03-9.53165E+04 3.85239E+03-9.75505E+03 1.70242E-11-2.58013E-11
 -1       412 2.85590E+03-9.61566E+04 3.72320E+03-9.87334E+03 1.03675E-10 4.84508E-11
 -1       413 2.72055E+03-9.70982E+04 3.58425E+03-9.82685E+03-3.15965E-12-2.54184E-11
 -1       414 2.54733E+03-9.81618E+04 3.43173E+03-9.59727E+03-9.99523E-12-1.19446E-11
 -1       415 2.33776E+03-9.93687E+04 3.26225E+03-9.16338E+03 1.00118E-11 1.57743E-11
 -1       416 2.09312E+03-1.00741E+05 3.07282E+03-8.50127E+03-9.36869E-11-3.15290E-11
 -1       417 1.81459E+03-1.02299E+05 2.86079E+03-7.58464E+03 9.37536E-11 3.48520E-11
 -1       418 1.50333E+03-1.04063E+05 2.62393E+03-6.38530E+03-2.14605E-10-4.89318E-11
 -1       419 1.16022E+03-1.06050E+05 2.36049E+03-4.87390E+03-4.22063E-12 1.77389E-11
 -1       420 7.85086E+02-1.08269E+05 2.06939E+03-3.02082E+03 1.97119E-10 3.08415E-11
 -1       421 3.75131E+02-1.10719E+05 1.75028E+03-7.97457E+02 1.99753E-12 5.89058E-12
 -1       422-7.79282E+01-1.13384E+05 1.40380E+03 1.82246E+03 3.06934E-11 6.95519E-12
 -1       423-5.92939E+02-1.16218E+05 1.03170E+03 4.86171E+03 5.24799E-11 3.97788E-11
 -1       424-1.20788E+03-1.19138E+05 6.36886E+02 8.33934E+03 4.76338E-11-3.75266E-11
 -1       425-1.99398E+03-1.21997E+05 2.23345E+02 1.22732E+04 2.70700E-11 1.41834E-11
 -1       426-3.07856E+03-1.24555E+05-2.04424E+02 1.66890E+04-2.29592E-10-1.46941E-11
 -1       427-4.68041E+03-1.26439E+05-6.42637E+02 2.16445E+04 3.29369E-10-1.88919E-11
 -1       428-7.16126E+03-1.27080E+05-1.09067E+03 2.72875E+04-1.40381E-10-3.53940E-13
 -1       429-1.10590E+04-1.25663E+05-1.55321E+03 3.39863E+04 1.38107E-10 1.01187E-11
 -1       430-1.70807E+04-1.21203E+05-2.05213E+03 4.26080E+04 1.85474E-10-5.85878E-11
 -1       431-2.10388E+04-1.20743E+05-2.94040E+03 4.80803E+04-2.42790E-10 6.61092E-11
 -1       501 2.02678E+02-8.75583E+04 2.64864E+03-1.11793E+03-5.32933E-10-1.04425E-10
 -1       502 2.60674E+02-8.81121E+04 2.27395E+03-2.06984E+03 8.21257E-11 3.78766E-11
 -1       503 4.38843E+02-8.85988E+04 2.03135E+03-3.76392E+03 1.28094E-10 1.68880E-11
 -1       504 5.41272E+02-8.91350E+04 1.84234E+03-5.06693E+03 1.51916E-10 1.09515E-11
 -1       505 5.93024E+02-8.97324E+04 1.68487E+03-6.11919E+03-8.43893E-11-2.44855E-11
 -1       506 5.96467E+02-9.03761E+04 1.54611E+03-6.99597E+03 5.51787E-11 3.78760E-11
 -1       507 5.48924E+02-9.10594E+04 1.41605E+03-7.73400E+03-7.44553E-11-7.86507E-12
 -1       508 4.52009E+02-9.17837E+04 1.28741E+03-8.34858E+03-4.29164E-11-2.61294E-11
 -1       509 3.09524E+02-9.25572E+04 1.15475E+03-8.84378E+03 4.80028E-11 3.11468E-11
 -1       510 1.25991E+02-9.33926E+04 1.01389E+03-9.21682E+03 1.28726E-10 9.07211E-12
 -1       511-9.40646E+01-9.43063E+04 8.61496E+02-9.46029E+03-1.64374E-10-2.75245E-11
 -1       512-3.46379E+02-9.53175E+04 6.94795E+02-9.56315E+03-7.06570E-12-1.52809E-11
 -1       513-6.26978E+02-9.64469E+04 5.11415E+02-9.51133E+03 3.66216E-11 2.34768E-11
 -1       514-9.32098E+02-9.77168E+04 3.09277E+02-9.28796E+03 7.01445E-11-4.76914E-12
 -1       515-1.25810E+03-9.91506E+04 8.65362E+01-8.87352E+03-3.98506E-11 9.50733E-12
 -1       516-1.60141E+03-1.00772E+05-1.58435E+02-8.24603E+03-3.27920E-11-1.43365E-11
 -1       517-1.95862E+03-1.02603E+05-4.27033E+02-7.38116E+03 1.24518E-10 1.88075E-11
 -1       518-2.32673E+03-1.04666E+05-7.20405E+02-6.25240E+03-2.96004E-11-1.10478E-11
 -1       519-2.70384E+03-1.06979E+05-1.03940E+03-4.83132E+03 3.30428E-11 7.64059E-13
 -1       520-3.09022E+03-1.09555E+05-1.38453E+03-3.08774E+03-9.88692E-11 2.54766E-12
 -1       521-3.49024E+03-1.12395E+05-1.75593E+03-9.89838E+02-1.51241E-11-6.07125E-13
 -1       522-3.91553E+03-1.15490E+05-2.15341E+03 1.49623E+03-1.22974E-10-1.88653E-11
 -1       523-4.38972E+03-1.18806E+05-2.57649E+03 4.40747E+03-1.37705E-11 9.69002E-12
 -1       524-4.95561E+03-1.22279E+05-3.02466E+03 7.78704E+03 7.11900E-11-1.44232E-11
 -1       525-5.68559E+03-1.25802E+05-3.49786E+03 1.16908E+04 1.28670E-10 1.27890E-11
 -1       526-6.69570E+03-1.29208E+05-3.99727E+03 1.62006E+04 2.02104E-10 1.39799E-11
 -1       527-8.16258E+03-1.32252E+05-4.52675E+03 2.14494E+04-2.54312E-10-1.91728E-11
 -1       528-1.03367E+04-1.34606E+05-5.09487E+03 2.76677E+04 2.03772E-10 4.18000E-11
 -1       529-1.35393E+04-1.35879E+05-5.71861E+03 3.52619E+04 1.44609E-10 2.67206E-13
 -1       530-1.81038E+04-1.35718E+05-6.42848E+03 4.49203E+04-2.32922E-10 1.41994E-11
 -1       531-2.13619E+04-1.40558E+05-7.63910E+03 5.11724E+04 3.37151E-11-3.71795E-12
 -1       601-9.71784E+01-8.46614E+04-1.46482E+03-1.05374E+03 1.05849E-10-9.77326E-12
 -1       602-2.60274E+02-8.56202E+04-1.34228E+03-1.96600E+03 7.22555E-11 1.38090E-11
 -1       603-5.02044E+02-8.64373E+04-1.28742E+03-3.59689E+03-9.16813E-11-2.12882E-11
 -1       604-7.48089E+02-8.72017E+04-1.27840E+03-4.86420E+03 2.70788E-10 4.57106E-11
 -1       605-9.96684E+02-8.79616E+04-1.30503E+03-5.87948E+03-6.57015E-11 1.21130E-11
 -1       606-1.25452E+03-8.87386E+04-1.36070E+03-6.71311E+03 4.96538E-11-8.80323E-12
 -1       607-1.52965E+03-8.95442E+04-1.44157E+03-7.40478E+03 3.45621E-11 2.91521E-11
 -1       608-1.82786E+03-9.03902E+04-1.54581E+03-7.97431E+03-1.33360E-10-5.96362E-11
 -1       609-2.15153E+03-9.12902E+04-1.67263E+03-8.42906E+03-3.10410E-11 3.05443E-12
 -1       610-2.50043E+03-9.22609E+04-1.82188E+03-8.76867E+03-8.18798E-11 1.36653E-11
 -1       611-2.87262E+03-9.33211E+04-1.99370E+03-8.98754E+03 1.55428E-10 1.76782E-11
 -1       612-3.26502E+03-9.44919E+04-2.18844E+03-9.07622E+03-5.06348E-11 3.65350E-11
 -1       613-3.67382E+03-9.57960E+04-2.40654E+03-9.02216E+03-2.28615E-12-1.99524E-11
 -1       614-4.09469E+03-9.72574E+04-2.64851E+03-8.81007E+03-2.10315E-11 6.01679E-12
 -1       615-4.52291E+03-9.89012E+04-2.91485E+03-8.42213E+03 9.39012E-11-1.54231E-11
 -1       616-4.95356E+03-1.00753E+05-3.20602E+03-7.83800E+03 8.57231E-11 7.82887E-12
 -1       617-5.38179E+03-1.02837E+05-3.52242E+03-7.03488E+03-8.06937E-11 3.00543E-12
 -1       618-5.80327E+03-1.05178E+05-3.86435E+03-5.98733E+03 3.01299E-11 1.56589E-11
 -1       619-6.21491E+03-1.07796E+05-4.23200E+03-4.66715E+03-4.43110E-11-2.49069E-11
 -1       620-6.61605E+03-1.10709E+05-4.62544E+03-3.04287E+03-3.50029E-11-5.36488E-11
 -1       621-7.01027E+03-1.13926E+05-5.04467E+03-1.07905E+03 2.24439E-11 1.27742E-11
 -1       622-7.40795E+03-1.17445E+05-5.48968E+03 1.26520E+03-5.01721E-11-1.90943E-11
 -1       623-7.82995E+03-1.21250E+05-5.96068E+03 4.03878E+03 5.93164E-12 2.56445E-11
 -1       624-8.31253E+03-1.25304E+05-6.45834E+03 7.30302E+03 8.38933E-11-3.87902E-11
 -1       625-8.91342E+03-1.29540E+05-6.98431E+03 1.11393E+04-7.75913E-11-1.13589E-11
 -1       626-9.71851E+03-1.33862E+05-7.54199E+03 1.56613E+04 9.08852E-11-6.27413E-12
 -1       627-1.08470E+04-1.38138E+05-8.13753E+03 2.10350E+04-4.64037E-11 1.48256E-12
 -1       628-1.24502E+04-1.42209E+05-8.78142E+03 2.75077E+04-1.37298E-10-2.09227E-11
 -1       629-1.46958E+04-1.45925E+05-9.49057E+03 3.54460E+04-2.65790E-10-6.47912E-12
 -1       630-1.77257E+04-1.49224E+05-1.02914E+04 4.53755E+04-6.07157E-11 5.01496E-11
 -1       631-2.01969E+04-1.57559E+05-1.16144E+04 5.18075E+04-2.80363E-10-2.88762E-11
 -1       701-3.75207E+02-8.19496E+04-5.37440E+03-9.69114E+02 3.04087E-11 9.10262E-12
 -1       702-7.37164E+02-8.32315E+04-4.78661E+03-1.81735E+03-1.26716E-10-1.76790E-11
 -1       703-1.35796E+03-8.43372E+04-4.45048E+03-3.34063E+03-3.53480E-11-1.91250E-11
 -1       704-1.91123E+03-8.53237E+04-4.25160E+03-4.53639E+03-1.62139E-10-4.03150E-11
 -1       705-2.42335E+03-8.62550E+04-4.15000E+03-5.49549E+03-2.97530E-11-6.23471E-13
 -1       706-2.91288E+03-8.71719E+04-4.12094E+03-6.27766E+03-2.54443E-12 2.50043E-11
 -1       707-3.39378E+03-8.81019E+04-4.14875E+03-6.92006E+03-1.56059E-12-4.66556E-12
 -1       708-3.87591E+03-8.90670E+04-4.22336E+03-7.44353E+03-1.04849E-10-1.17140E-11
 -1       709-4.36531E+03-9.00877E+04-4.33825E+03-7.85757E+03 4.67558E-11-7.02473E-12
 -1       710-4.86470E+03-9.11849E+04-4.48911E+03-8.16397E+03-4.90525E-12 2.50312E-11
 -1       711-5.37417E+03-9.23806E+04-4.67308E+03-8.35908E+03-7.49483E-11-1.53707E-11
 -1       712-5.89190E+03-9.36981E+04-4.88818E+03-8.43526E+03-1.13408E-10-2.93856E-11
 -1       713-6.41456E+03-9.51620E+04-5.13307E+03-8.38167E+03-4.09435E-12-5.98396E-12
 -1       714-6.93770E+03-9.67982E+04-5.40680E+03-8.18474E+03-1.09555E-10-2.86185E-11
 -1       715-7.45604E+03-9.86336E+04-5.70867E+03-7.82829E+03 1.78811E-11 3.07226E-11
 -1       716-7.96378E+03-1.00695E+05-6.03814E+03-7.29360E+03-4.01801E-11 1.10825E-15
 -1       717-8.45489E+03-1.03011E+05-6.39476E+03-6.55922E+03-4.91733E-11-3.02638E-11
 -1       718-8.92359E+03-1.05608E+05-6.77812E+03-5.60066E+03-1.50370E-11-1.00701E-11
 -1       719-9.36508E+03-1.08511E+05-7.18783E+03-4.38990E+03 8.94585E-11 1.29424E-11
 -1       720-9.77647E+03-1.11743E+05-7.62353E+03-2.89453E+03 8.63953E-11 9.89571E-12
 -1       721-1.01582E+04-1.15321E+05-8.08496E+03-1.07647E+03 1.67452E-10 1.69205E-12
 -1       722-1.05156E+04-1.19256E+05-8.57203E+03 1.11001E+03 2.03895E-11 4.80683E-12
 -1       723-1.08619E+04-1.23549E+05-9.08498E+03 3.72141E+03 9.74585E-11-1.62736E-11
 -1       724-1.12199E+04-1.28192E+05-9.62468E+03 6.82957E+03-1.06504E-10 3.39731E-12
 -1       725-1.16257E+04-1.33159E+05-1.01930E+04 1.05285E+04-1.19380E-10-8.80076E-12
 -1       726-1.21300E+04-1.38414E+05-1.07932E+04 1.49443E+04 2.93936E-11 7.73767E-12
 -1       727-1.27981E+04-1.43908E+05-1.14310E+04 2.02481E+04 8.68629E-12 2.52303E-11
 -1       728-1.37037E+04-1.49600E+05-1.21148E+04 2.66727E+04 1.38114E-10-2.54841E-11
 -1       729-1.49147E+04-1.55475E+05-1.28575E+04 3.45289E+04 4.08910E-13 3.68809E-11
 -1       730-1.64654E+04-1.61598E+05-1.36770E+04 4.42156E+04 1.12339E-11-7.21221E-12
 -1       731-1.81639E+04-1.72445E+05-1.50090E+04 5.04807E+04-2.63255E-11 3.03388E-11
 -1       801-6.28068E+02-7.94658E+04-9.00027E+03-8.69776E+02-9.90461E-11 1.61162E-11
 -1       802-1.16702E+03-8.10110E+04-7.98877E+03-1.63793E+03-4.41916E-10-1.15447E-10
 -1       803-2.12692E+03-8.23635E+04-7.39368E+03-3.02111E+03 6.95477E-11 3.63506E-11
 -1       804-2.95109E+03-8.35518E+04-7.01821E+03-4.11650E+03 1.07756E-11-6.01440E-12
 -1       805-3.69287E+03-8.46478E+04-6.79542E+03-4.99839E+03 1.00548E-10 4.12309E-11
 -1       806-4.38412E+03-8.57029E+04-6.68430E+03-5.71645E+03-6.63310E-11-3.94684E-11
 -1       807-5.04537E+03-8.67551E+04-6.65865E+03-6.30294E+03 1.07005E-10-6.17090E-13
 -1       808-5.69015E+03-8.78350E+04-6.70121E+03-6.77733E+03-7.12277E-11 9.89227E-12
 -1       809-6.32695E+03-8.89693E+04-6.80033E+03-7.14962E+03 4.60033E-11 4.45427E-11
 -1       810-6.96039E+03-9.01834E+04-6.94800E+03-7.42292E+03 9.49430E-11 2.60555E-12
 -1       811-7.59198E+03-9.15026E+04-7.13856E+03-7.59518E+03-8.33712E-11-3.86225E-12
 -1       812-8.22079E+03-9.29528E+04-7.36795E+03-7.66047E+03 1.88706E-10 4.37550E-11
 -1       813-8.84394E+03-9.45605E+04-7.63319E+03-7.60970E+03-7.08949E-11-1.92259E-11
 -1       814-9.45699E+03-9.63538E+04-7.93200E+03-7.43102E+03 3.15455E-12-4.62486E-12
 -1       815-1.00543E+04-9.83613E+04-8.26261E+03-7.10998E+03 5.41343E-11 2.88600E-11
 -1       816-1.06291E+04-1.00613E+05-8.62359E+03-6.62951E+03 3.08011E-11 2.02023E-11
 -1       817-1.11744E+04-1.03139E+05-9.01374E+03-5.96963E+03-5.76921E-11-2.36246E-11
 -1       818-1.16825E+04-1.05969E+05-9.43200E+03-5.10707E+03 1.02517E-10 6.00840E-12
 -1       819-1.21464E+04-1.09134E+05-9.87744E+03-4.01450E+03 9.75817E-11 3.42318E-11
 -1       820-1.25598E+04-1.12663E+05-1.03492E+04-2.65956E+03-1.28288E-10-5.80730E-11
 -1       821-1.29183E+04-1.16582E+05-1.08467E+04-1.00331E+03-4.47119E-11 1.54962E-11
 -1       822-1.32203E+04-1.20916E+05-1.13694E+04 1.00187E+03-2.74793E-11-3.88276E-12
 -1       823-1.34681E+04-1.25684E+05-1.19171E+04 3.41530E+03-1.84924E-11-3.43351E-11
 -1       824-1.36689E+04-1.30904E+05-1.24903E+04 6.31208E+03 5.76847E-11 1.17371E-11
 -1       825-1.38355E+04-1.36586E+05-1.30900E+04 9.78859E+03 1.12098E-10 1.80492E-11
 -1       826-1.39858E+04-1.42741E+05-1.37184E+04 1.39695E+04-5.74376E-11-2.68232E-11
 -1       827-1.41399E+04-1.49386E+05-1.43788E+04 1.90158E+04 2.58912E-11 4.14613E-11
 -1       828-1.43142E+04-1.56551E+05-1.50767E+04 2.51336E+04 3.01028E-11-2.29065E-11
 -1       829-1.45106E+04-1.64300E+05-1.58195E+04 3.25801E+04-8.59703E-11-1.03817E-11
 -1       830-1.47010E+04-1.72760E+05-1.66170E+04 4.16637E+04-1.50045E-10-4.96839E-12
 -1       831-1.56871E+04-1.85524E+05-1.79074E+04 4.75272E+04-1.05902E-11-2.96873E-11
 -1       901-8.52194E+02-7.72464E+04-1.22747E+04-7.59890E+02 1.30843E-11-3.60649E-12
 -1       902-1.54625E+03-7.90065E+04-1.08874E+04-1.43596E+03 3.87414E-10 9.08322E-11
 -1       903-2.80434E+03-8.05671E+04-1.00604E+04-2.65541E+03-2.70439E-10-5.40508E-11
 -1       904-3.86447E+03-8.19316E+04-9.52543E+03-3.62799E+03 1.04554E-10 2.23486E-11
 -1       905-4.80430E+03-8.31770E+04-9.19191E+03-4.41432E+03-1.04919E-10-2.95635E-11
 -1       906-5.66855E+03-8.43607E+04-9.00454E+03-5.05507E+03-2.45390E-11-1.72911E-11
 -1       907-6.48453E+03-8.55277E+04-8.92787E+03-5.57723E+03-1.28666E-10-2.45400E-11
 -1       908-7.26940E+03-8.67146E+04-8.93838E+03-5.99773E+03 1.55000E-10 3.50565E-11
 -1       909-8.03380E+03-8.79535E+04-9.01999E+03-6.32594E+03 2.19237E-11 3.36608E-13
 -1       910-8.78371E+03-8.92736E+04-9.16143E+03-6.56542E+03-1.22971E-10-4.25297E-11
 -1       911-9.52156E+03-9.07035E+04-9.35463E+03-6.71521E+03-2.42570E-11 9.15689E-12
 -1       912-1.02470E+04-9.22714E+04-9.59365E+03-6.77082E+03-9.05967E-11-1.40182E-11
 -1       913-1.09574E+04-9.40063E+04-9.87406E+03-6.72475E+03-1.57257E-10-4.46049E-11
 -1       914-1.16483E+04-9.59381E+04-1.01924E+04-6.56690E+03 9.24374E-11 2.70412E-11
 -1       915-1.23135E+04-9.80977E+04-1.05460E+04-6.28461E+03 4.54594E-11-8.07163E-12
 -1       916-1.29456E+04-1.00517E+05-1.09326E+04-5.86261E+03-2.61659E-11-2.97076E-12
 -1       917-1.35360E+04-1.03230E+05-1.13503E+04-5.28273E+03-3.72717E-11-4.20169E-12
 -1       918-1.40752E+04-1.06269E+05-1.17974E+04-4.52337E+03 5.09958E-11 1.27178E-11
 -1       919-1.45534E+04-1.09672E+05-1.22726E+04-3.55877E+03-8.54262E-11-4.91991E-11
 -1       920-1.49603E+04-1.13472E+05-1.27744E+04-2.35793E+03-8.50116E-11-6.16280E-12
 -1       921-1.52858E+04-1.17707E+05-1.33017E+04-8.83098E+02 1.97274E-11-1.12604E-13
 -1       922-1.55202E+04-1.22413E+05-1.38534E+04 9.12177E+02 5.66435E-11-2.68488E-12
 -1       923-1.56545E+04-1.27628E+05-1.44288E+04 3.08569E+03-5.63987E-11 7.86704E-12
 -1       924-1.56803E+04-1.33390E+05-1.50272E+04 5.70991E+03-1.10211E-10-1.83578E-11
 -1       925-1.55888E+04-1.39741E+05-1.56486E+04 8.87606E+03-2.44167E-10-5.22616E-11
 -1       926-1.53697E+04-1.46730E+05-1.62932E+04 1.26988E+04 2.13542E-10 5.41404E-11
 -1       927-1.50076E+04-1.54416E+05-1.69621E+04 1.73214E+04-8.86099E-11-2.77478E-11
 -1       928-1.44769E+04-1.62881E+05-1.76570E+04 2.29194E+04 8.88001E-11 1.66544E-11
 -1       929-1.37351E+04-1.72236E+05-1.83802E+04 2.97034E+04 2.28508E-11-9.06277E-12
 -1       930-1.27135E+04-1.82639E+05-1.91349E+04 3.79158E+04 2.74232E-10 2.68609E-11
 -1       931-1.30658E+04-1.96918E+05-2.03614E+04 4.32083E+04-2.82203E-11-1.59668E-11
 -1      1001-1.04516E+03-7.53215E+04-1.51403E+04-6.42332E+02-3.79803E-10-4.59901E-11
 -1      1002-1.87177E+03-7.72550E+04-1.34294E+04-1.21732E+03 2.18297E-10 3.68485E-12
 -1      1003-3.38548E+03-7.89875E+04-1.24014E+04-2.25553E+03-8.80180E-11-2.34359E-11
 -1      1004-4.64673E+03-8.05011E+04-1.17270E+04-3.08818E+03-2.92787E-11 1.44419E-11
 -1      1005-5.75405E+03-8.18758E+04-1.12958E+04-3.76399E+03 7.52007E-11-7.29901E-12
 -1      1006-6.76372E+03-8.31735E+04-1.10404E+04-4.31561E+03-5.72924E-11-1.06094E-11
 -1      1007-7.70944E+03-8.44433E+04-1.09174E+04-4.76493E+03-1.50174E-10-1.68406E-11
 -1      1008-8.61190E+03-8.57262E+04-1.08978E+04-5.12598E+03 2.44557E-11-1.01822E-12
 -1      1009-9.48369E+03-8.70581E+04-1.09619E+04-5.40685E+03-2.08890E-10-5.57182E-11
 -1      1010-1.03319E+04-8.84717E+04-1.10957E+04-5.61096E+03 5.41835E-11 2.72543E-11
 -1      1011-1.11597E+04-8.99981E+04-1.12889E+04-5.73799E+03-3.09899E-11-1.28448E-11
 -1      1012-1.19671E+04-9.16681E+04-1.15341E+04-5.78455E+03 1.19742E-10 3.90322E-11
 -1      1013-1.27514E+04-9.35128E+04-1.18256E+04-5.74462E+03-6.07763E-11-1.45402E-11
 -1      1014-1.35080E+04-9.55639E+04-1.21589E+04-5.60976E+03 4.21612E-11-1.55964E-12
 -1      1015-1.42302E+04-9.78545E+04-1.25305E+04-5.36922E+03-1.82057E-10-5.03172E-11
 -1      1016-1.49096E+04-1.00419E+05-1.29375E+04-5.00975E+03 7.71566E-11 2.84395E-11
 -1      1017-1.55362E+04-1.03294E+05-1.33774E+04-4.51535E+03-1.36347E-11 5.00859E-12
 -1      1018-1.60986E+04-1.06517E+05-1.38480E+04-3.86677E+03-1.38110E-10-2.48558E-11
 -1      1019-1.65839E+04-1.10128E+05-1.43472E+04-3.04074E+03-8.88619E-11-6.31690E-12
 -1      1020-1.69775E+04-1.14170E+05-1.48733E+04-2.00901E+03 3.48641E-11 1.58357E-12
 -1      1021-1.72637E+04-1.18687E+05-1.54245E+04-7.37028E+02-7.20373E-11-4.86437E-12
 -1      1022-1.74248E+04-1.23729E+05-1.59991E+04 8.17801E+02 1.58160E-10 8.97301E-12
 -1      1023-1.74411E+04-1.29346E+05-1.65954E+04 2.70819E+03-2.15953E-10-3.51712E-11
 -1      1024-1.72899E+04-1.35597E+05-1.72119E+04 4.99954E+03 1.25589E-10 2.00184E-11
 -1      1025-1.69442E+04-1.42548E+05-1.78471E+04 7.77285E+03-4.76704E-11-2.14555E-11
 -1      1026-1.63709E+04-1.50275E+05-1.84994E+04 1.11279E+04-3.71195E-11 1.73894E-11
 -1      1027-1.55271E+04-1.58871E+05-1.91673E+04 1.51860E+04-1.36063E-10-4.68648E-11
 -1      1028-1.43569E+04-1.68449E+05-1.98493E+04 2.00924E+04-1.08961E-10-8.88299E-12
 -1      1029-1.27861E+04-1.79153E+05-2.05434E+04 2.60169E+04 2.87999E-10 4.64897E-11
 -1      1030-1.07175E+04-1.91160E+05-2.12473E+04 3.31516E+04 3.76707E-11 1.02158E-11
 -1      1031-1.05238E+04-2.06654E+05-2.24040E+04 3.77439E+04 1.01162E-10 2.62075E-11
 -1      1101-1.20514E+03-7.37155E+04-1.75491E+04-5.19273E+02 5.92843E-11 4.86610E-12
 -1      1102-2.14112E+03-7.57856E+04-1.55703E+04-9.86431E+02 2.32173E-10 4.51886E-11
 -1      1103-3.86628E+03-7.76560E+04-1.43745E+04-1.83045E+03-1.56098E-10-1.85341E-11
 -1      1104-5.29329E+03-7.92909E+04-1.35832E+04-2.51028E+03 1.06755E-10 2.21436E-11
 -1      1105-6.53790E+03-8.07730E+04-1.30697E+04-3.06384E+03 2.27811E-10 5.38399E-11
 -1      1106-7.66615E+03-8.21666E+04-1.27562E+04-3.51651E+03 1.64659E-10 2.61932E-11
 -1      1107-8.71731E+03-8.35238E+04-1.25931E+04-3.88538E+03-3.02583E-11-4.64411E-12
 -1      1108-9.71526E+03-8.48887E+04-1.25471E+04-4.18153E+03-9.49003E-11-1.83362E-11
 -1      1109-1.06744E+04-8.62998E+04-1.25951E+04-4.41151E+03 2.97574E-11 5.36674E-12
 -1      1110-1.16027E+04-8.77925E+04-1.27209E+04-4.57824E+03 1.33785E-10 2.48939E-11
 -1      1111-1.25039E+04-8.94002E+04-1.29127E+04-4.68170E+03-4.45044E-12 8.22825E-12
 -1      1112-1.33781E+04-9.11556E+04-1.31617E+04-4.71938E+03-7.58055E-11-3.44790E-11
 -1      1113-1.42228E+04-9.30917E+04-1.34611E+04-4.68656E+03 1.30083E-10 4.01825E-11
 -1      1114-1.50329E+04-9.52421E+04-1.38056E+04-4.57650E+03 1.39441E-10 2.97472E-11
 -1      1115-1.58012E+04-9.76418E+04-1.41910E+04-4.38040E+03-7.22746E-11-2.07958E-11
 -1      1116-1.65184E+04-1.00328E+05-1.46139E+04-4.08729E+03 3.91849E-11 7.57350E-13
 -1      1117-1.71731E+04-1.03338E+05-1.50711E+04-3.68379E+03 3.79590E-11 1.45225E-12
 -1      1118-1.77517E+04-1.06716E+05-1.55600E+04-3.15357E+03 2.34964E-11-3.42046E-12
 -1      1119-1.82385E+04-1.10504E+05-1.60781E+04-2.47683E+03-2.73086E-11-1.40238E-12
 -1      1120-1.86151E+04-1.14752E+05-1.66232E+04-1.62933E+03 8.94428E-11 2.86905E-11
 -1      1121-1.88604E+04-1.19512E+05-1.71928E+04-5.81417E+02 5.12656E-11 7.67745E-12
 -1      1122-1.89496E+04-1.24841E+05-1.77847E+04 7.03405E+02-4.67959E-11-2.08227E-11
 -1      1123-1.88536E+04-1.30805E+05-1.83963E+04 2.27006E+03 1.98054E-10 3.99045E-11
 -1      1124-1.85381E+04-1.37477E+05-1.90251E+04 4.17376E+03-2.72294E-10-1.71831E-11
 -1      1125-1.79611E+04-1.44940E+05-1.96683E+04 6.48204E+03 1.91107E-10 2.28401E-11
 -1      1126-1.70718E+04-1.53291E+05-2.03226E+04 9.27675E+03-1.23265E-10-1.55537E-11
 -1      1127-1.58069E+04-1.62647E+05-2.09843E+04 1.26559E+04 2.61981E-11 1.56612E-11
 -1      1128-1.40881E+04-1.73145E+05-2.16491E+04 1.67349E+04 4.32451E-11-2.62079E-12
 -1      1129-1.18183E+04-1.84948E+05-2.23117E+04 2.16468E+04-4.38732E-12-3.07363E-12
 -1      1130-8.87862E+03-1.98251E+05-2.29654E+04 2.75418E+04-1.62520E-10-2.81489E-11
 -1      1131-8.23157E+03-2.14712E+05-2.40562E+04 3.13329E+04 1.33028E-10 1.98978E-11
 -1      1201-1.33080E+03-7.24475E+04-1.94626E+04-3.92366E+02-1.45429E-10-2.75514E-12
 -1      1202-2.35241E+03-7.46207E+04-1.72733E+04-7.46727E+02-2.00007E-10-3.39740E-11
 -1      1203-4.24346E+03-7.65966E+04-1.59453E+04-1.38717E+03 2.83010E-10 3.73663E-11
 -1      1204-5.80024E+03-7.83255E+04-1.50614E+04-1.90469E+03-5.43595E-11-1.32104E-11
 -1      1205-7.15191E+03-7.98916E+04-1.44822E+04-2.32714E+03-1.42855E-10-2.58128E-11
 -1      1206-8.37226E+03-8.13612E+04-1.41223E+04-2.67317E+03 4.11757E-11 1.21897E-11
 -1      1207-9.50508E+03-8.27882E+04-1.39268E+04-2.95534E+03 8.48284E-11 5.61757E-12
 -1      1208-1.05769E+04-8.42187E+04-1.38589E+04-3.18184E+03-2.27759E-11-1.13329E-11
 -1      1209-1.16035E+04-8.56934E+04-1.38934E+04-3.35758E+03 4.38552E-11 1.35943E-11
 -1      1210-1.25938E+04-8.72493E+04-1.40121E+04-3.48484E+03 5.68574E-11 5.28446E-12
 -1      1211-1.35519E+04-8.89216E+04-1.42019E+04-3.56369E+03 2.88004E-11 1.33087E-11
 -1      1212-1.44780E+04-9.07448E+04-1.44530E+04-3.59233E+03-2.17923E-10-2.75375E-11
 -1      1213-1.53695E+04-9.27531E+04-1.47578E+04-3.56729E+03 8.31851E-11 7.48941E-12
 -1      1214-1.62210E+04-9.49820E+04-1.51103E+04-3.48346E+03-7.38255E-11-4.13764E-12
 -1      1215-1.70247E+04-9.74680E+04-1.55059E+04-3.33414E+03-1.36618E-11-8.85310E-12
 -1      1216-1.77705E+04-1.00250E+05-1.59405E+04-3.11087E+03-1.52033E-10-5.60366E-12
 -1      1217-1.84457E+04-1.03369E+05-1.64107E+04-2.80323E+03 4.17788E-11 8.40724E-12
 -1      1218-1.90349E+04-1.06869E+05-1.69133E+04-2.39844E+03 1.23573E-10 4.02094E-11
 -1      1219-1.95200E+04-1.10800E+05-1.74456E+04-1.88091E+03-3.81434E-11-2.76135E-12
 -1      1220-1.98791E+04-1.15214E+05-1.80048E+04-1.23153E+03-8.77245E-12-2.94957E-11
 -1      1221-2.00867E+04-1.20169E+05-1.85880E+04-4.26895E+02 2.78698E-11 5.92919E-12
 -1      1222-2.01122E+04-1.25732E+05-1.91923E+04 5.61723E+02-1.16608E-10-3.57904E-11
 -1      1223-1.99191E+04-1.31976E+05-1.98146E+04 1.76950E+03 4.96616E-11 5.08892E-14
 -1      1224-1.94636E+04-1.38986E+05-2.04514E+04 3.23936E+03-6.03399E-11 1.87664E-11
 -1      1225-1.86929E+04-1.46859E+05-2.10986E+04 5.02329E+03-1.12743E-11-9.36864E-12
 -1      1226-1.75427E+04-1.55708E+05-2.17518E+04 7.18368E+03-1.78475E-10-8.05207E-12
 -1      1227-1.59351E+04-1.65664E+05-2.24054E+04 9.79437E+03 2.67750E-10 2.07319E-11
 -1      1228-1.37756E+04-1.76882E+05-2.30529E+04 1.29415E+04-1.58867E-10-1.49076E-11
 -1      1229-1.09503E+04-1.89540E+05-2.36865E+04 1.67241E+04-1.49995E-10-1.78648E-11
 -1      1230-7.32372E+03-2.03845E+05-2.42965E+04 2.12535E+04-7.48546E-11-9.24941E-12
 -1      1231-6.31983E+03-2.21049E+05-2.53312E+04 2.41648E+04 5.03508E-11 1.14527E-11
 -1      1301-1.42118E+03-7.15319E+04-2.08506E+04-2.62878E+02 1.34763E-10 3.72000E-11
 -1      1302-2.50426E+03-7.37770E+04-1.85101E+04-5.00956E+02 1.90687E-11 2.75640E-12
 -1      1303-4.51457E+03-7.58274E+04-1.70867E+04-9.31314E+02-1.62752E-11-9.61834E-12
 -1      1304-6.16453E+03-7.76231E+04-1.61357E+04-1.27984E+03-2.41231E-11-7.21964E-12
 -1      1305-7.59287E+03-7.92495E+04-1.55088E+04-1.56486E+03-1.29724E-10-1.48914E-11
 -1      1306-8.87898E+03-8.07739E+04-1.51150E+04-1.79861E+03 9.00258E-11 1.01660E-11
 -1      1307-1.00700E+04-8.22517E+04-1.48957E+04-1.98934E+03 1.22887E-10 3.33570E-11
 -1      1308-1.11943E+04-8.37301E+04-1.48117E+04-2.14247E+03 4.88465E-11-7.44171E-12
 -1      1309-1.22689E+04-8.52511E+04-1.48359E+04-2.26124E+03 2.28547E-11 8.46165E-12
 -1      1310-1.33033E+04-8.68531E+04-1.49490E+04-2.34720E+03-1.06093E-10-1.35248E-11
 -1      1311-1.43018E+04-8.85724E+04-1.51370E+04-2.40042E+03-1.50391E-10-9.78677E-12
 -1      1312-1.52649E+04-9.04446E+04-1.53891E+04-2.41975E+03 8.50885E-11-1.73656E-12
 -1      1313-1.61897E+04-9.25053E+04-1.56974E+04-2.40287E+03-1.84689E-10-3.14415E-11
 -1      1314-1.70706E+04-9.47909E+04-1.60554E+04-2.34637E+03-5.20772E-11-9.32503E-14
 -1      1315-1.78994E+04-9.73393E+04-1.64579E+04-2.24571E+03 7.00499E-11 1.09784E-11
 -1      1316-1.86651E+04-1.00191E+05-1.69006E+04-2.09515E+03-1.61794E-11 3.99996E-13
 -1      1317-1.93541E+04-1.03388E+05-1.73797E+04-1.88753E+03 3.72803E-11-3.52972E-12
 -1      1318-1.99497E+04-1.06979E+05-1.78919E+04-1.61410E+03-8.94283E-11-1.38146E-11
 -1      1319-2.04318E+04-1.11013E+05-1.84340E+04-1.26408E+03 9.25205E-11-1.73881E-12
 -1      1320-2.07760E+04-1.15548E+05-1.90028E+04-8.24301E+02-4.15817E-11 9.50152E-12
 -1      1321-2.09534E+04-1.20647E+05-1.95953E+04-2.78610E+02-5.96600E-11-1.21286E-11
 -1      1322-2.09291E+04-1.26381E+05-2.02079E+04 3.92748E+02-4.14290E-11 1.60008E-11
 -1      1323-2.06613E+04-1.32831E+05-2.08371E+04 1.21390E+03 5.59585E-11-1.03269E-11
 -1      1324-2.00996E+04-1.40089E+05-2.14786E+04 2.21412E+03 5.17494E-11-2.71333E-12
 -1      1325-1.91833E+04-1.48262E+05-2.21276E+04 3.42863E+03-7.82837E-11-1.83588E-12
 -1      1326-1.78392E+04-1.57472E+05-2.27785E+04 4.89941E+03 8.85991E-11 4.30336E-13
 -1      1327-1.59792E+04-1.67862E+05-2.34246E+04 6.67585E+03 4.51445E-11-1.12548E-13
 -1      1328-1.34979E+04-1.79596E+05-2.40578E+04 8.81525E+03-9.00283E-12 4.01456E-12
 -1      1329-1.02700E+04-1.92865E+05-2.46684E+04 1.13833E+04-3.82621E-11-2.84162E-12
 -1      1330-6.14747E+03-2.07885E+05-2.52448E+04 1.44543E+04-2.02039E-11-3.73341E-12
 -1      1331-4.88630E+03-2.25616E+05-2.62373E+04 1.64275E+04 1.25322E-10 6.80415E-11
 -1      1401-1.47564E+03-7.09786E+04-2.16919E+04-1.31813E+02-8.29177E-11-1.22340E-11
 -1      1402-2.59572E+03-7.32663E+04-1.92603E+04-2.51390E+02-1.23170E-10 9.70321E-12
 -1      1403-4.67790E+03-7.53609E+04-1.77793E+04-4.67560E+02-6.62743E-11-1.80201E-11
 -1      1404-6.38396E+03-7.71966E+04-1.67878E+04-6.42856E+02-7.44083E-11 2.02054E-11
 -1      1405-7.85841E+03-7.88592E+04-1.61319E+04-7.86363E+02 9.63903E-11 1.10226E-11
 -1      1406-9.18397E+03-8.04167E+04-1.57175E+04-9.04145E+02-1.27678E-10-4.11190E-12
 -1      1407-1.04098E+04-8.19253E+04-1.54836E+04-1.00030E+03-1.36223E-10-1.82096E-12
 -1      1408-1.15655E+04-8.34328E+04-1.53897E+04-1.07750E+03-2.13219E-11-3.69807E-13
 -1      1409-1.26688E+04-8.49820E+04-1.54075E+04-1.13739E+03-2.83066E-11 9.23066E-12
 -1      1410-1.37296E+04-8.66120E+04-1.55171E+04-1.18071E+03-4.74406E-11-6.09537E-12
 -1      1411-1.47524E+04-8.83599E+04-1.57037E+04-1.20753E+03-9.56810E-11-2.07136E-11
 -1      1412-1.57376E+04-9.02618E+04-1.59564E+04-1.21728E+03-4.13890E-11 1.24196E-13
 -1      1413-1.66823E+04-9.23542E+04-1.62666E+04-1.20878E+03 9.13373E-11 6.01416E-12
 -1      1414-1.75808E+04-9.46741E+04-1.66277E+04-1.18035E+03-1.54271E-10-9.39489E-12
 -1      1415-1.84244E+04-9.72603E+04-1.70342E+04-1.12968E+03-5.60785E-12 4.35400E-12
 -1      1416-1.92018E+04-1.00154E+05-1.74816E+04-1.05386E+03-1.07822E-10-1.09527E-11
 -1      1417-1.98988E+04-1.03399E+05-1.79660E+04-9.49270E+02-1.57966E-10-9.56786E-13
 -1      1418-2.04978E+04-1.07044E+05-1.84838E+04-8.11440E+02-3.65787E-11-1.34673E-11
 -1      1419-2.09773E+04-1.11142E+05-1.90316E+04-6.34879E+02-4.08667E-11 7.19946E-12
 -1      1420-2.13115E+04-1.15751E+05-1.96061E+04-4.12874E+02-3.27387E-11 3.92080E-12
 -1      1421-2.14695E+04-1.20938E+05-2.02039E+04-1.37179E+02-7.92801E-11-3.47299E-12
 -1      1422-2.14136E+04-1.26776E+05-2.08214E+04 2.02258E+02-5.96377E-11-8.50549E-12
 -1      1423-2.10989E+04-1.33352E+05-2.14544E+04 6.17692E+02-6.76207E-12 2.58911E-13
 -1      1424-2.04710E+04-1.40761E+05-2.20983E+04 1.12394E+03-1.00107E-10-9.55041E-12
 -1      1425-1.94645E+04-1.49116E+05-2.27480E+04 1.73878E+03-3.16370E-11-4.10662E-12
 -1      1426-1.80011E+04-1.58545E+05-2.33969E+04 2.48330E+03-6.06349E-11-4.63986E-12
 -1      1427-1.59868E+04-1.69197E+05-2.40378E+04 3.38223E+03-1.76999E-10-1.85709E-11
 -1      1428-1.33098E+04-1.81243E+05-2.46616E+04 4.46421E+03 1.11843E-10 1.19359E-11
 -1      1429-9.83798E+03-1.94878E+05-2.52576E+04 5.76202E+03-6.52374E-11-4.42755E-12
 -1      1430-5.41575E+03-2.10328E+05-2.58129E+04 7.31293E+03 1.33650E-10 2.98265E-12
 -1      1431-3.99919E+03-2.28374E+05-2.67792E+04 8.30916E+03-6.02675E-11-1.03433E-11
 -1      1501-1.49384E+03-7.07936E+04-2.19737E+04-7.61465E+02 1.11702E-11-2.42971E-11
 -1      1502-2.62627E+03-7.30952E+04-1.95118E+04-7.66285E+02 7.79280E-11 1.77174E-11
 -1      1503-4.73245E+03-7.52046E+04-1.80115E+04-7.81835E+02-5.76720E-11-3.21632E-11
 -1      1504-6.45725E+03-7.70536E+04-1.70063E+04-8.05312E+02 5.03650E-10 4.48996E-12
 -1      1505-7.94708E+03-7.87283E+04-1.63408E+04-8.35026E+02-8.89134E-11-4.30353E-12
 -1      1506-9.28580E+03-8.02969E+04-1.59195E+04-8.69893E+02-1.77769E-10 3.77415E-12
 -1      1507-1.05232E+04-8.18157E+04-1.56807E+04-9.09187E+02 3.07331E-10-9.76681E-12
 -1      1508-1.16894E+04-8.33330E+04-1.55834E+04-9.52380E+02-1.71857E-10-5.58091E-12
 -1      1509-1.28023E+04-8.48916E+04-1.55991E+04-9.99063E+02 1.75848E-10-3.61950E-12
 -1      1510-1.38719E+04-8.65310E+04-1.57075E+04-1.04888E+03-2.03979E-10-5.98406E-12
 -1      1511-1.49027E+04-8.82885E+04-1.58936E+04-1.10150E+03 2.44285E-10 1.32608E-11
 -1      1512-1.58953E+04-9.02004E+04-1.61464E+04-1.15660E+03-5.93621E-11 1.52756E-11
 -1      1513-1.68466E+04-9.23034E+04-1.64572E+04-1.21381E+03-2.59497E-10 4.56664E-13
 -1      1514-1.77509E+04-9.46348E+04-1.68193E+04-1.27276E+03 6.92479E-11 4.44958E-12
 -1      1515-1.85994E+04-9.72337E+04-1.72272E+04-1.33298E+03 1.14398E-11 1.39332E-11
 -1      1516-1.93807E+04-1.00141E+05-1.76762E+04-1.39396E+03-1.00286E-10 6.94777E-12
 -1      1517-2.00803E+04-1.03403E+05-1.81623E+04-1.45508E+03 8.71620E-11-1.97213E-11
 -1      1518-2.06803E+04-1.07066E+05-1.86819E+04-1.51557E+03-8.82836E-11-1.70901E-11
 -1      1519-2.11588E+04-1.11185E+05-1.92316E+04-1.57447E+03 3.39208E-11 4.56019E-11
 -1      1520-2.14896E+04-1.15819E+05-1.98080E+04-1.63062E+03-6.66226E-11-4.01820E-11
 -1      1521-2.16408E+04-1.21035E+05-2.04076E+04-1.68252E+03 1.72539E-10 6.17815E-12
 -1      1522-2.15741E+04-1.26909E+05-2.10265E+04-1.72830E+03-1.24534E-10-1.05627E-12
 -1      1523-2.12434E+04-1.33527E+05-2.16608E+04-1.76563E+03 1.16158E-11-1.92977E-12
 -1      1524-2.05930E+04-1.40987E+05-2.23055E+04-1.79158E+03 7.28328E-11-5.46935E-12
 -1      1525-1.95561E+04-1.49403E+05-2.29552E+04-1.80254E+03 1.55113E-10 1.58561E-11
 -1      1526-1.80524E+04-1.58905E+05-2.36035E+04-1.79412E+03 1.27903E-10-6.79737E-13
 -1      1527-1.59862E+04-1.69645E+05-2.42425E+04-1.76099E+03-1.75646E-10 1.95765E-11
 -1      1528-1.32436E+04-1.81794E+05-2.48630E+04-1.69685E+03 8.89804E-11-7.63031E-12
 -1      1529-9.69002E+03-1.95552E+05-2.54540E+04-1.59427E+03 3.43637E-11-4.71911E-12
 -1      1530-5.16753E+03-2.11145E+05-2.60022E+04-1.44460E+03-2.15008E-10 2.40273E-11
 -1      1531-3.69900E+03-2.29297E+05-2.69595E+04-1.27522E+03 1.08930E-10-3.61777E-11
 -3
    1PSTEP                         5           3           1          
  100CL  103 3.00000E-01         496                     0    3           1
 -4  DISP        4    1
 -5  D1          1    2    1    0
 -5  D2          1    2    2    0
 -5  D3          1    2    3    0
 -5  ALL         1    2    0    0    1ALL
 -1         1 5.79371E-09 3.43906E-08 3.54751E-25
 -1         2 6.03776E-09 3.48775E-08 3.69694E-25
 -1         3 6.37131E-09 3.53363E-08 3.90117E-25
 -1         4 6.77221E-09 3.57754E-08 4.14665E-25
 -1         5 7.23039E-09 3.62033E-08 4.42719E-25
 -1         6 7.74123E-09 3.66298E-08 4.73998E-25
 -1         7 8.30270E-09 3.70658E-08 5.08377E-25
 -1         8 8.91408E-09 3.75228E-08 5.45812E-25
 -1         9 9.57532E-09 3.80129E-08 5.86300E-25
 -1        10 1.02867E-08 3.85489E-08 6.29855E-25
 -1        11 1.10484E-08 3.91441E-08 6.76497E-25
 -1        12 1.18608E-08 3.98123E-08 7.26240E-25
 -1        13 1.27238E-08 4.05683E-08 7.79085E-25
 -1        14 1.36371E-08 4.14275E-08 8.35007E-25
 -1        15 1.45998E-08 4.24063E-08 8.93950E-25
 -1        16 1.56101E-08 4.35221E-08 9.55811E-25
 -1        17 1.66654E-08 4.47931E-08 1.02043E-24
 -1        18 1.77618E-08 4.62381E-08 1.08756E-24
 -1        19 1.88939E-08 4.78769E-08 1.15688E-24
 -1        20 2.00543E-08 4.97292E-08 1.22793E-24
 -1        21 2.12332E-08 5.18145E-08 1.30012E-24
 -1        22 2.24180E-08 5.41509E-08 1.37266E-24
 -1        23 2.35926E-08 5.67543E-08 1.44459E-24
 -1        24 2.47372E-08 5.96358E-08 1.51467E-24
 -1        25 2.58274E-08 6.27994E-08 1.58142E-24
 -1        26 2.68342E-08 6.62373E-08 1.64307E-24
 -1        27 2.77251E-08 6.99236E-08 1.69761E-24
 -1        28 2.84651E-08 7.38035E-08 1.74293E-24
 -1        29 2.90228E-08 7.77768E-08 1.77708E-24
 -1        30 2.93810E-08 8.16704E-08 1.79901E-24
 -1        31 2.95704E-08 8.52625E-08 1.81060E-24
 -1       101 4.24007E-09 3.02581E-08 2.59621E-25
 -1       102 4.54113E-09 3.07575E-08 2.78055E-25
 -1       103 4.88844E-09 3.12129E-08 2.99321E-25
 -1       104 5.27398E-09 3.16357E-08 3.22927E-25
 -1       105 5.69138E-09 3.20383E-08 3.48485E-25
 -1       106 6.13584E-09 3.24329E-08 3.75700E-25
 -1       107 6.60393E-09 3.28320E-08 4.04361E-25
 -1       108 7.09317E-09 3.32480E-08 4.34317E-25
 -1       109 7.60172E-09 3.36939E-08 4.65456E-25
 -1       110 8.12809E-09 3.41829E-08 4.97685E-25
 -1       111 8.67086E-09 3.47289E-08 5.30920E-25
 -1       112 9.22863E-09 3.53462E-08 5.65072E-25
 -1       113 9.79977E-09 3.60501E-08 6.00043E-25
 -1       114 1.03824E-08 3.68569E-08 6.35720E-25
 -1       115 1.09744E-08 3.77838E-08 6.71967E-25
 -1       116 1.15731E-08 3.88488E-08 7.08626E-25
 -1       117 1.21755E-08 4.00713E-08 7.45512E-25
 -1       118 1.27782E-08 4.14715E-08 7.82415E-25
 -1       119 1.33774E-08 4.30705E-08 8.19100E-25
 -1       120 1.39688E-08 4.48896E-08 8.55312E-25
 -1       121 1.45481E-08 4.69504E-08 8.90784E-25
 -1       122 1.51110E-08 4.92735E-08 9.25251E-25
 -1       123 1.56534E-08 5.18777E-08 9.58464E-25
 -1       124 1.61720E-08 5.47778E-08 9.90216E-25
 -1       125 1.66644E-08 5.79830E-08 1.02037E-24
 -1       126 1.71298E-08 6.14928E-08 1.04887E-24
 -1       127 1.75685E-08 6.52929E-08 1.07573E-24
 -1       128 1.79805E-08 6.93492E-08 1.10095E-24
 -1       129 1.83609E-08 7.35991E-08 1.12424E-24
 -1       130 1.86893E-08 7.79386E-08 1.14435E-24
 -1       131 1.89269E-08 8.21023E-08 1.15890E-24
 -1       201 3.70694E-09 2.76107E-08 2.26977E-25
 -1       202 3.93617E-09 2.81286E-08 2.41013E-25
 -1       203 4.22651E-09 2.85922E-08 2.58791E-25
 -1       204 4.55631E-09 2.90148E-08 2.78984E-25
 -1       205 4.91500E-09 2.94132E-08 3.00947E-25
 -1       206 5.29647E-09 2.98013E-08 3.24305E-25
 -1       207 5.69663E-09 3.01918E-08 3.48807E-25
 -1       208 6.11264E-09 3.05969E-08 3.74279E-25
 -1       209 6.54236E-09 3.10286E-08 4.00591E-25
 -1       210 6.98414E-09 3.14994E-08 4.27641E-25
 -1       211 7.43654E-09 3.20219E-08 4.55341E-25
 -1       212 7.89824E-09 3.26095E-08 4.83612E-25
 -1       213 8.36794E-09 3.32762E-08 5.12372E-25
 -1       214 8.84423E-09 3.40366E-08 5.41535E-25
 -1       215 9.32559E-09 3.49066E-08 5.71009E-25
 -1       216 9.81034E-09 3.59026E-08 6.00690E-25
 -1       217 1.02966E-08 3.70423E-08 6.30465E-25
 -1       218 1.07824E-08 3.83441E-08 6.60211E-25
 -1       219 1.12656E-08 3.98274E-08 6.89797E-25
 -1       220 1.17439E-08 4.15122E-08 7.19086E-25
 -1       221 1.22152E-08 4.34186E-08 7.47941E-25
 -1       222 1.26772E-08 4.55670E-08 7.76232E-25
 -1       223 1.31281E-08 4.79766E-08 8.03835E-25
 -1       224 1.35658E-08 5.06651E-08 8.30639E-25
 -1       225 1.39887E-08 5.36475E-08 8.56531E-25
 -1       226 1.43942E-08 5.69349E-08 8.81361E-25
 -1       227 1.47778E-08 6.05333E-08 9.04848E-25
 -1       228 1.51292E-08 6.44442E-08 9.26365E-25
 -1       229 1.54242E-08 6.86680E-08 9.44431E-25
 -1       230 1.56049E-08 7.32170E-08 9.55492E-25
 -1       231 1.54751E-08 7.82152E-08 9.47547E-25
 -1       301 3.05997E-09 2.50226E-08 1.87363E-25
 -1       302 3.28333E-09 2.55723E-08 2.01040E-25
 -1       303 3.53891E-09 2.60372E-08 2.16689E-25
 -1       304 3.82328E-09 2.64552E-08 2.34101E-25
 -1       305 4.12968E-09 2.68455E-08 2.52862E-25
 -1       306 4.45308E-09 2.72233E-08 2.72663E-25
 -1       307 4.78989E-09 2.76014E-08 2.93286E-25
 -1       308 5.13746E-09 2.79918E-08 3.14568E-25
 -1       309 5.49379E-09 2.84060E-08 3.36387E-25
 -1       310 5.85730E-09 2.88553E-08 3.58644E-25
 -1       311 6.22668E-09 2.93515E-08 3.81261E-25
 -1       312 6.60080E-09 2.99067E-08 4.04169E-25
 -1       313 6.97865E-09 3.05337E-08 4.27305E-25
 -1       314 7.35924E-09 3.12459E-08 4.50609E-25
 -1       315 7.74162E-09 3.20574E-08 4.74022E-25
 -1       316 8.12480E-09 3.29834E-08 4.97484E-25
 -1       317 8.50780E-09 3.40399E-08 5.20935E-25
 -1       318 8.88964E-09 3.52436E-08 5.44316E-25
 -1       319 9.26934E-09 3.66124E-08 5.67564E-25
 -1       320 9.64591E-09 3.81647E-08 5.90622E-25
 -1       321 1.00184E-08 3.99197E-08 6.13431E-25
 -1       322 1.03859E-08 4.18968E-08 6.35930E-25
 -1       323 1.07472E-08 4.41159E-08 6.58053E-25
 -1       324 1.11008E-08 4.65965E-08 6.79706E-25
 -1       325 1.14443E-08 4.93579E-08 7.00737E-25
 -1       326 1.17730E-08 5.24192E-08 7.20866E-25
 -1       327 1.20783E-08 5.58001E-08 7.39557E-25
 -1       328 1.23431E-08 5.95241E-08 7.55772E-25
 -1       329 1.25347E-08 6.36262E-08 7.67503E-25
 -1       330 1.25885E-08 6.81744E-08 7.70799E-25
 -1       331 1.23980E-08 7.33148E-08 7.59131E-25
 -1       401 2.38504E-09 2.25287E-08 1.46037E-25
 -1       402 2.60017E-09 2.30840E-08 1.59209E-25
 -1       403 2.83453E-09 2.35481E-08 1.73559E-25
 -1       404 3.08379E-09 2.39577E-08 1.88821E-25
 -1       405 3.34563E-09 2.43364E-08 2.04854E-25
 -1       406 3.61740E-09 2.47004E-08 2.21494E-25
 -1       407 3.89676E-09 2.50627E-08 2.38600E-25
 -1       408 4.18179E-09 2.54350E-08 2.56052E-25
 -1       409 4.47092E-09 2.58282E-08 2.73756E-25
 -1       410 4.76287E-09 2.62528E-08 2.91632E-25
 -1       411 5.05662E-09 2.67197E-08 3.09619E-25
 -1       412 5.35131E-09 2.72397E-08 3.27662E-25
 -1       413 5.64622E-09 2.78245E-08 3.45720E-25
 -1       414 5.94075E-09 2.84863E-08 3.63754E-25
 -1       415 6.23441E-09 2.92377E-08 3.81735E-25
 -1       416 6.52678E-09 3.00926E-08 3.99637E-25
 -1       417 6.81754E-09 3.10652E-08 4.17440E-25
 -1       418 7.10642E-09 3.21709E-08 4.35128E-25
 -1       419 7.39324E-09 3.34260E-08 4.52691E-25
 -1       420 7.67788E-09 3.48475E-08 4.70119E-25
 -1       421 7.96017E-09 3.64535E-08 4.87404E-25
 -1       422 8.23985E-09 3.82628E-08 5.04528E-25
 -1       423 8.51627E-09 4.02953E-08 5.21454E-25
 -1       424 8.78803E-09 4.25716E-08 5.38094E-25
 -1       425 9.05231E-09 4.51140E-08 5.54276E-25
 -1       426 9.30362E-09 4.79466E-08 5.69664E-25
 -1       427 9.53199E-09 5.10976E-08 5.83647E-25
 -1       428 9.71987E-09 5.46026E-08 5.95151E-25
 -1       429 9.83754E-09 5.85121E-08 6.02356E-25
 -1       430 9.83827E-09 6.29046E-08 6.02401E-25
 -1       431 9.65436E-09 6.79102E-08 5.91140E-25
 -1       501 1.70869E-09 2.01297E-08 1.04623E-25
 -1       502 1.91676E-09 2.06725E-08 1.17364E-25
 -1       503 2.13191E-09 2.11258E-08 1.30537E-25
 -1       504 2.35189E-09 2.15226E-08 1.44007E-25
 -1       505 2.57556E-09 2.18860E-08 1.57703E-25
 -1       506 2.80200E-09 2.22328E-08 1.71567E-25
 -1       507 3.03014E-09 2.25761E-08 1.85537E-25
 -1       508 3.25893E-09 2.29271E-08 1.99545E-25
 -1       509 3.48739E-09 2.32962E-08 2.13534E-25
 -1       510 3.71470E-09 2.36930E-08 2.27453E-25
 -1       511 3.94019E-09 2.41276E-08 2.41259E-25
 -1       512 4.16331E-09 2.46097E-08 2.54921E-25
 -1       513 4.38369E-09 2.51499E-08 2.68415E-25
 -1       514 4.60107E-09 2.57591E-08 2.81725E-25
 -1       515 4.81535E-09 2.64487E-08 2.94846E-25
 -1       516 5.02657E-09 2.72310E-08 3.07778E-25
 -1       517 5.23489E-09 2.81190E-08 3.20534E-25
 -1       518 5.44062E-09 2.91266E-08 3.33131E-25
 -1       519 5.64417E-09 3.02685E-08 3.45594E-25
 -1       520 5.84598E-09 3.15606E-08 3.57951E-25
 -1       521 6.04652E-09 3.30198E-08 3.70231E-25
 -1       522 6.24605E-09 3.46641E-08 3.82448E-25
 -1       523 6.44441E-09 3.65129E-08 3.94593E-25
 -1       524 6.64060E-09 3.85875E-08 4.06606E-25
 -1       525 6.83217E-09 4.09114E-08 4.18336E-25
 -1       526 7.01426E-09 4.35118E-08 4.29486E-25
 -1       527 7.17826E-09 4.64208E-08 4.39527E-25
 -1       528 7.30997E-09 4.96791E-08 4.47592E-25
 -1       529 7.38764E-09 5.33411E-08 4.52347E-25
 -1       530 7.38034E-09 5.74822E-08 4.51901E-25
 -1       531 7.24919E-09 6.22100E-08 4.43870E-25
 -1       601 1.05062E-09 1.78226E-08 6.43299E-26
 -1       602 1.25181E-09 1.83396E-08 7.66489E-26
 -1       603 1.44941E-09 1.87722E-08 8.87481E-26
 -1       604 1.64325E-09 1.91498E-08 1.00617E-25
 -1       605 1.83342E-09 1.94937E-08 1.12261E-25
 -1       606 2.01999E-09 1.98198E-08 1.23685E-25
 -1       607 2.20281E-09 2.01409E-08 1.34879E-25
 -1       608 2.38158E-09 2.04676E-08 1.45825E-25
 -1       609 2.55593E-09 2.08096E-08 1.56500E-25
 -1       610 2.72549E-09 2.11758E-08 1.66883E-25
 -1       611 2.88997E-09 2.15753E-08 1.76954E-25
 -1       612 3.04917E-09 2.20170E-08 1.86702E-25
 -1       613 3.20304E-09 2.25102E-08 1.96123E-25
 -1       614 3.35165E-09 2.30647E-08 2.05222E-25
 -1       615 3.49524E-09 2.36907E-08 2.14015E-25
 -1       616 3.63423E-09 2.43992E-08 2.22525E-25
 -1       617 3.76919E-09 2.52018E-08 2.30789E-25
 -1       618 3.90085E-09 2.61110E-08 2.38851E-25
 -1       619 4.03011E-09 2.71402E-08 2.46765E-25
 -1       620 4.15792E-09 2.83039E-08 2.54591E-25
 -1       621 4.28527E-09 2.96177E-08 2.62388E-25
 -1       622 4.41298E-09 3.10987E-08 2.70208E-25
 -1       623 4.54155E-09 3.27656E-08 2.78080E-25
 -1       624 4.67076E-09 3.46395E-08 2.85992E-25
 -1       625 4.79926E-09 3.67442E-08 2.93860E-25
 -1       626 4.92389E-09 3.91074E-08 3.01491E-25
 -1       627 5.03891E-09 4.17625E-08 3.08534E-25
 -1       628 5.13510E-09 4.47506E-08 3.14424E-25
 -1       629 5.19905E-09 4.81243E-08 3.18339E-25
 -1       630 5.21314E-09 5.19515E-08 3.19202E-25
 -1       631 5.15713E-09 5.63206E-08 3.15773E-25
 -1       701 4.25806E-10 1.56025E-08 2.60722E-26
 -1       702 6.20506E-10 1.60831E-08 3.79938E-26
 -1       703 8.02035E-10 1.64867E-08 4.91089E-26
 -1       704 9.72368E-10 1.68387E-08 5.95384E-26
 -1       705 1.13281E-09 1.71583E-08 6.93624E-26
 -1       706 1.28423E-09 1.74600E-08 7.86338E-26
 -1       707 1.42714E-09 1.77556E-08 8.73845E-26
 -1       708 1.56183E-09 1.80551E-08 9.56315E-26
 -1       709 1.68841E-09 1.83671E-08 1.03382E-25
 -1       710 1.80694E-09 1.87001E-08 1.10640E-25
 -1       711 1.91749E-09 1.90620E-08 1.17408E-25
 -1       712 2.02018E-09 1.94609E-08 1.23696E-25
 -1       713 2.11526E-09 1.99050E-08 1.29518E-25
 -1       714 2.20310E-09 2.04029E-08 1.34896E-25
 -1       715 2.28425E-09 2.09638E-08 1.39865E-25
 -1       716 2.35945E-09 2.15972E-08 1.44470E-25
 -1       717 2.42961E-09 2.23135E-08 1.48766E-25
 -1       718 2.49586E-09 2.31239E-08 1.52822E-25
 -1       719 2.55949E-09 2.40404E-08 1.56718E-25
 -1       720 2.62194E-09 2.50761E-08 1.60542E-25
 -1       721 2.68472E-09 2.62454E-08 1.64386E-25
 -1       722 2.74933E-09 2.75641E-08 1.68342E-25
 -1       723 2.81706E-09 2.90499E-08 1.72490E-25
 -1       724 2.88881E-09 3.07228E-08 1.76883E-25
 -1       725 2.96479E-09 3.26059E-08 1.81535E-25
 -1       726 3.04413E-09 3.47263E-08 1.86393E-25
 -1       727 3.12456E-09 3.71160E-08 1.91318E-25
 -1       728 3.20203E-09 3.98142E-08 1.96061E-25
 -1       729 3.27069E-09 4.28691E-08 2.00265E-25
 -1       730 3.32332E-09 4.63403E-08 2.03488E-25
 -1       731 3.35272E-09 5.03006E-08 2.05288E-25
 -1       801-1.53185E-10 1.34631E-08-9.37959E-27
 -1       802 3.54800E-11 1.38991E-08 2.17245E-27
 -1       803 2.02513E-10 1.42663E-08 1.23999E-26
 -1       804 3.51893E-10 1.45869E-08 2.15465E-26
 -1       805 4.86075E-10 1.48775E-08 2.97625E-26
 -1       806 6.06652E-10 1.51510E-08 3.71455E-26
 -1       807 7.14689E-10 1.54179E-08 4.37607E-26
 -1       808 8.10907E-10 1.56872E-08 4.96521E-26
 -1       809 8.95816E-10 1.59668E-08 5.48511E-26
 -1       810 9.69818E-10 1.62640E-08 5.93823E-26
 -1       811 1.03329E-09 1.65861E-08 6.32686E-26
 -1       812 1.08664E-09 1.69400E-08 6.65355E-26
 -1       813 1.13039E-09 1.73330E-08 6.92143E-26
 -1       814 1.16518E-09 1.77727E-08 7.13444E-26
 -1       815 1.19183E-09 1.82669E-08 7.29759E-26
 -1       816 1.21134E-09 1.88241E-08 7.41709E-26
 -1       817 1.22496E-09 1.94533E-08 7.50046E-26
 -1       818 1.23414E-09 2.01644E-08 7.55666E-26
 -1       819 1.24057E-09 2.09680E-08 7.59602E-26
 -1       820 1.24614E-09 2.18758E-08 7.63018E-26
 -1       821 1.25296E-09 2.29008E-08 7.67189E-26
 -1       822 1.26320E-09 2.40573E-08 7.73463E-26
 -1       823 1.27913E-09 2.53616E-08 7.83216E-26
 -1       824 1.30291E-09 2.68323E-08 7.97777E-26
 -1       825 1.33651E-09 2.84907E-08 8.18351E-26
 -1       826 1.38156E-09 3.03621E-08 8.45937E-26
 -1       827 1.43926E-09 3.24761E-08 8.81262E-26
 -1       828 1.51035E-09 3.48683E-08 9.24793E-26
 -1       829 1.59538E-09 3.75814E-08 9.76858E-26
 -1       830 1.69524E-09 4.06666E-08 1.03800E-25
 -1       831 1.81221E-09 4.41845E-08 1.10962E-25
 -1       901-6.75694E-10 1.13968E-08-4.13729E-26
 -1       902-4.92508E-10 1.17815E-08-3.01564E-26
 -1       903-3.38289E-10 1.21064E-08-2.07135E-26
 -1       904-2.07272E-10 1.23905E-08-1.26913E-26
 -1       905-9.59536E-11 1.26477E-08-5.87527E-27
 -1       906-2.07916E-12 1.28893E-08-1.27308E-28
 -1       907 7.58761E-11 1.31244E-08 4.64592E-27
 -1       908 1.38994E-10 1.33609E-08 8.51065E-27
 -1       909 1.88093E-10 1.36055E-08 1.15170E-26
 -1       910 2.23849E-10 1.38648E-08 1.37063E-26
 -1       911 2.46892E-10 1.41449E-08 1.51173E-26
 -1       912 2.57877E-10 1.44520E-08 1.57899E-26
 -1       913 2.57543E-10 1.47922E-08 1.57694E-26
 -1       914 2.46764E-10 1.51721E-08 1.51094E-26
 -1       915 2.26592E-10 1.55983E-08 1.38743E-26
 -1       916 1.98293E-10 1.60782E-08 1.21415E-26
 -1       917 1.63372E-10 1.66195E-08 1.00033E-26
 -1       918 1.23606E-10 1.72306E-08 7.56842E-27
 -1       919 8.10547E-11 1.79210E-08 4.96300E-27
 -1       920 3.80750E-11 1.87007E-08 2.33135E-27
 -1       921-2.67858E-12 1.95811E-08-1.64010E-28
 -1       922-3.82603E-11 2.05750E-08-2.34269E-27
 -1       923-6.54455E-11 2.16969E-08-4.00725E-27
 -1       924-8.07461E-11 2.29633E-08-4.94411E-27
 -1       925-8.04176E-11 2.43936E-08-4.92399E-27
 -1       926-6.04370E-11 2.60100E-08-3.70058E-27
 -1       927-1.64234E-11 2.78391E-08-1.00561E-27
 -1       928 5.65435E-11 2.99119E-08 3.46218E-27
 -1       929 1.64263E-10 3.22655E-08 1.00579E-26
 -1       930 3.13961E-10 3.49429E-08 1.92239E-26
 -1       931 5.15069E-10 3.79946E-08 3.15378E-26
 -1      1001-1.13270E-09 9.39504E-09-6.93553E-26
 -1      1002-9.54342E-10 9.72297E-09-5.84346E-26
 -1      1003-8.11152E-10 1.00008E-08-4.96671E-26
 -1      1004-6.95833E-10 1.02439E-08-4.26061E-26
 -1      1005-6.03966E-10 1.04640E-08-3.69811E-26
 -1      1006-5.32718E-10 1.06705E-08-3.26185E-26
 -1      1007-4.80166E-10 1.08710E-08-2.94007E-26
 -1      1008-4.44934E-10 1.10721E-08-2.72435E-26
 -1      1009-4.25957E-10 1.12796E-08-2.60815E-26
 -1      1010-4.22343E-10 1.14990E-08-2.58602E-26
 -1      1011-4.33259E-10 1.17354E-08-2.65286E-26
 -1      1012-4.57861E-10 1.19939E-08-2.80350E-26
 -1      1013-4.95218E-10 1.22798E-08-3.03224E-26
 -1      1014-5.44266E-10 1.25985E-08-3.33256E-26
 -1      1015-6.03750E-10 1.29556E-08-3.69678E-26
 -1      1016-6.72190E-10 1.33571E-08-4.11584E-26
 -1      1017-7.47830E-10 1.38097E-08-4.57899E-26
 -1      1018-8.28610E-10 1.43203E-08-5.07360E-26
 -1      1019-9.12120E-10 1.48969E-08-5.58494E-26
 -1      1020-9.95575E-10 1.55480E-08-6.09593E-26
 -1      1021-1.07576E-09 1.62833E-08-6.58694E-26
 -1      1022-1.14903E-09 1.71138E-08-7.03554E-26
 -1      1023-1.21120E-09 1.80519E-08-7.41620E-26
 -1      1024-1.25754E-09 1.91118E-08-7.69995E-26
 -1      1025-1.28267E-09 2.03102E-08-7.85381E-26
 -1      1026-1.28042E-09 2.16662E-08-7.84004E-26
 -1      1027-1.24365E-09 2.32025E-08-7.61491E-26
 -1      1028-1.16398E-09 2.49453E-08-7.12707E-26
 -1      1029-1.03137E-09 2.69254E-08-6.31510E-26
 -1      1030-8.33641E-10 2.91787E-08-5.10441E-26
 -1      1031-5.55820E-10 3.17462E-08-3.40331E-26
 -1      1101-1.51668E-09 7.44828E-09-9.28669E-26
 -1      1102-1.34242E-09 7.71530E-09-8.21968E-26
 -1      1103-1.20838E-09 7.94199E-09-7.39897E-26
 -1      1104-1.10602E-09 8.14063E-09-6.77221E-26
 -1      1105-1.03016E-09 8.32053E-09-6.30767E-26
 -1      1106-9.77460E-10 8.48913E-09-5.98502E-26
 -1      1107-9.45687E-10 8.65257E-09-5.79047E-26
 -1      1108-9.33215E-10 8.81615E-09-5.71410E-26
 -1      1109-9.38787E-10 8.98458E-09-5.74822E-26
 -1      1110-9.61341E-10 9.16225E-09-5.88632E-26
 -1      1111-9.99891E-10 9.35332E-09-6.12236E-26
 -1      1112-1.05344E-09 9.56193E-09-6.45025E-26
 -1      1113-1.12091E-09 9.79225E-09-6.86335E-26
 -1      1114-1.20107E-09 1.00486E-08-7.35421E-26
 -1      1115-1.29252E-09 1.03355E-08-7.91414E-26
 -1      1116-1.39358E-09 1.06579E-08-8.53292E-26
 -1      1117-1.50228E-09 1.10210E-08-9.19853E-26
 -1      1118-1.61632E-09 1.14304E-08-9.89680E-26
 -1      1119-1.73298E-09 1.18926E-08-1.06111E-25
 -1      1120-1.84908E-09 1.24145E-08-1.13220E-25
 -1      1121-1.96091E-09 1.30040E-08-1.20067E-25
 -1      1122-2.06417E-09 1.36701E-08-1.26390E-25
 -1      1123-2.15384E-09 1.44228E-08-1.31880E-25
 -1      1124-2.22410E-09 1.52740E-08-1.36182E-25
 -1      1125-2.26814E-09 1.62372E-08-1.38879E-25
 -1      1126-2.27799E-09 1.73281E-08-1.39482E-25
 -1      1127-2.24426E-09 1.85649E-08-1.37417E-25
 -1      1128-2.15577E-09 1.99690E-08-1.31999E-25
 -1      1129-1.99918E-09 2.15651E-08-1.22410E-25
 -1      1130-1.75845E-09 2.33816E-08-1.07671E-25
 -1      1131-1.41432E-09 2.54512E-08-8.65994E-26
 -1      1201-1.82157E-09 5.54633E-09-1.11535E-25
 -1      1202-1.65058E-09 5.74923E-09-1.01066E-25
 -1      1203-1.52375E-09 5.92180E-09-9.32997E-26
 -1      1204-1.43154E-09 6.07317E-09-8.76537E-26
 -1      1205-1.36817E-09 6.21029E-09-8.37737E-26
 -1      1206-1.32994E-09 6.33873E-09-8.14328E-26
 -1      1207-1.31434E-09 6.46310E-09-8.04773E-26
 -1      1208-1.31955E-09 6.58739E-09-8.07963E-26
 -1      1209-1.34417E-09 6.71516E-09-8.23037E-26
 -1      1210-1.38700E-09 6.84970E-09-8.49267E-26
 -1      1211-1.44696E-09 6.99417E-09-8.85979E-26
 -1      1212-1.52293E-09 7.15167E-09-9.32493E-26
 -1      1213-1.61371E-09 7.32535E-09-9.88078E-26
 -1      1214-1.71796E-09 7.51846E-09-1.05191E-25
 -1      1215-1.83413E-09 7.73442E-09-1.12305E-25
 -1      1216-1.96042E-09 7.97687E-09-1.20037E-25
 -1      1217-2.09468E-09 8.24977E-09-1.28258E-25
 -1      1218-2.23439E-09 8.55745E-09-1.36813E-25
 -1      1219-2.37658E-09 8.90467E-09-1.45519E-25
 -1      1220-2.51775E-09 9.29676E-09-1.54163E-25
 -1      1221-2.65377E-09 9.73971E-09-1.62491E-25
 -1      1222-2.77979E-09 1.02403E-08-1.70207E-25
 -1      1223-2.89011E-09 1.08064E-08-1.76962E-25
 -1      1224-2.97800E-09 1.14468E-08-1.82344E-25
 -1      1225-3.03554E-09 1.21718E-08-1.85867E-25
 -1      1226-3.05332E-09 1.29935E-08-1.86956E-25
 -1      1227-3.02019E-09 1.39257E-08-1.84927E-25
 -1      1228-2.92285E-09 1.49845E-08-1.78967E-25
 -1      1229-2.74548E-09 1.61884E-08-1.68106E-25
 -1      1230-2.46914E-09 1.75587E-08-1.51186E-25
 -1      1231-2.07131E-09 1.91198E-08-1.26827E-25
 -1      1301-2.04268E-09 3.67843E-09-1.25074E-25
 -1      1302-1.87408E-09 3.81493E-09-1.14751E-25
 -1      1303-1.75243E-09 3.93118E-09-1.07302E-25
 -1      1304-1.66752E-09 4.03321E-09-1.02102E-25
 -1      1305-1.61311E-09 4.12567E-09-9.87712E-26
 -1      1306-1.58523E-09 4.21224E-09-9.70642E-26
 -1      1307-1.58118E-09 4.29602E-09-9.68162E-26
 -1      1308-1.59901E-09 4.37965E-09-9.79082E-26
 -1      1309-1.63722E-09 4.46552E-09-1.00247E-25
 -1      1310-1.69452E-09 4.55584E-09-1.03756E-25
 -1      1311-1.76972E-09 4.65271E-09-1.08361E-25
 -1      1312-1.86165E-09 4.75822E-09-1.13989E-25
 -1      1313-1.96902E-09 4.87446E-09-1.20564E-25
 -1      1314-2.09042E-09 5.00360E-09-1.27997E-25
 -1      1315-2.22419E-09 5.14794E-09-1.36188E-25
 -1      1316-2.36842E-09 5.30990E-09-1.45019E-25
 -1      1317-2.52084E-09 5.49214E-09-1.54352E-25
 -1      1318-2.67878E-09 5.69755E-09-1.64023E-25
 -1      1319-2.83907E-09 5.92933E-09-1.73837E-25
 -1      1320-2.99795E-09 6.19107E-09-1.83566E-25
 -1      1321-3.15100E-09 6.48679E-09-1.92937E-25
 -1      1322-3.29297E-09 6.82108E-09-2.01629E-25
 -1      1323-3.41762E-09 7.19916E-09-2.09262E-25
 -1      1324-3.51758E-09 7.62708E-09-2.15383E-25
 -1      1325-3.58410E-09 8.11177E-09-2.19455E-25
 -1      1326-3.60674E-09 8.66128E-09-2.20842E-25
 -1      1327-3.57312E-09 9.28492E-09-2.18783E-25
 -1      1328-3.46844E-09 9.99345E-09-2.12374E-25
 -1      1329-3.27512E-09 1.07992E-08-2.00537E-25
 -1      1330-2.97223E-09 1.17165E-08-1.81991E-25
 -1      1331-2.53494E-09 1.27615E-08-1.55215E-25
 -1      1401-2.17667E-09 1.83345E-09-1.33278E-25
 -1      1402-2.00953E-09 1.90207E-09-1.23044E-25
 -1      1403-1.89101E-09 1.96054E-09-1.15787E-25
 -1      1404-1.81048E-09 2.01190E-09-1.10856E-25
 -1      1405-1.76147E-09 2.05844E-09-1.07855E-25
 -1      1406-1.73981E-09 2.10201E-09-1.06529E-25
 -1      1407-1.74270E-09 2.14416E-09-1.06706E-25
 -1      1408-1.76810E-09 2.18620E-09-1.08261E-25
 -1      1409-1.81445E-09 2.22935E-09-1.11099E-25
 -1      1410-1.88041E-09 2.27470E-09-1.15138E-25
 -1      1411-1.96475E-09 2.32330E-09-1.20302E-25
 -1      1412-2.06624E-09 2.37621E-09-1.26516E-25
 -1      1413-2.18355E-09 2.43447E-09-1.33699E-25
 -1      1414-2.31520E-09 2.49916E-09-1.41761E-25
 -1      1415-2.45951E-09 2.57144E-09-1.50596E-25
 -1      1416-2.61447E-09 2.65252E-09-1.60085E-25
 -1      1417-2.77775E-09 2.74374E-09-1.70083E-25
 -1      1418-2.94658E-09 2.84653E-09-1.80420E-25
 -1      1419-3.11766E-09 2.96252E-09-1.90895E-25
 -1      1420-3.28710E-09 3.09349E-09-2.01270E-25
 -1      1421-3.45027E-09 3.24148E-09-2.11261E-25
 -1      1422-3.60167E-09 3.40880E-09-2.20531E-25
 -1      1423-3.73475E-09 3.59807E-09-2.28680E-25
 -1      1424-3.84174E-09 3.81232E-09-2.35231E-25
 -1      1425-3.91338E-09 4.05507E-09-2.39617E-25
 -1      1426-3.93863E-09 4.33034E-09-2.41163E-25
 -1      1427-3.90434E-09 4.64282E-09-2.39064E-25
 -1      1428-3.79486E-09 4.99787E-09-2.32361E-25
 -1      1429-3.59155E-09 5.40173E-09-2.19912E-25
 -1      1430-3.27229E-09 5.86146E-09-2.00364E-25
 -1      1431-2.81089E-09 6.38520E-09-1.72112E-25
 -1      1501-2.22155E-09 0.00000E+00-1.36026E-25
 -1      1502-2.05490E-09 0.00000E+00-1.25822E-25
 -1      1503-1.93743E-09 0.00000E+00-1.18629E-25
 -1      1504-1.85837E-09 0.00000E+00-1.13788E-25
 -1      1505-1.81115E-09 0.00000E+00-1.10897E-25
 -1      1506-1.79157E-09 0.00000E+00-1.09698E-25
 -1      1507-1.79677E-09 0.00000E+00-1.10017E-25
 -1      1508-1.82470E-09 0.00000E+00-1.11727E-25
 -1      1509-1.87376E-09 0.00000E+00-1.14731E-25
 -1      1510-1.94261E-09 0.00000E+00-1.18947E-25
 -1      1511-2.02999E-09 0.00000E+00-1.24297E-25
 -1      1512-2.13466E-09 0.00000E+00-1.30706E-25
 -1      1513-2.25528E-09 0.00000E+00-1.38091E-25
 -1      1514-2.39035E-09 0.00000E+00-1.46362E-25
 -1      1515-2.53816E-09 0.00000E+00-1.55412E-25
 -1      1516-2.69670E-09 0.00000E+00-1.65120E-25
 -1      1517-2.86359E-09 0.00000E+00-1.75339E-25
 -1      1518-3.03604E-09 0.00000E+00-1.85898E-25
 -1      1519-3.21071E-09 0.00000E+00-1.96593E-25
 -1      1520-3.38366E-09 0.00000E+00-2.07183E-25
 -1      1521-3.55018E-09 0.00000E+00-2.17379E-25
 -1      1522-3.70470E-09 0.00000E+00-2.26840E-25
 -1      1523-3.84056E-09 0.00000E+00-2.35159E-25
 -1      1524-3.94986E-09 0.00000E+00-2.41851E-25
 -1      1525-4.02316E-09 0.00000E+00-2.46339E-25
 -1      1526-4.04923E-09 0.00000E+00-2.47935E-25
 -1      1527-4.01466E-09 0.00000E+00-2.45819E-25
 -1      1528-3.90351E-09 0.00000E+00-2.39013E-25
 -1      1529-3.69680E-09 0.00000E+00-2.26356E-25
 -1      1530-3.37202E-09 0.00000E+00-2.06470E-25
 -1      1531-2.90251E-09 0.00000E+00-1.77722E-25
 -3
    1PSTEP                         6           3           1          
  100CL  103 3.00000E-01         496                     0    3           1
 -4  STRESS      6    1
 -5  SXX         1    4    1    1
 -5  SYY         1    4    2    2
 -5  SZZ         1    4    3    3
 -5  SXY         1    4    1    2
 -5  SYZ         1    4    2    3
 -5  SZX         1    4    3    1
 -1         1 1.07256E+04-1.38956E+05 7.70766E+04-1.42954E+03-5.20262E-10 1.35999E-10
 -1         2 1.11660E+04-1.42260E+05 6.39474E+04-1.20002E+03 8.81113E-10 6.13423E-11
 -1         3 1.92406E+04-1.41529E+05 5.87571E+04-2.08880E+03-1.67020E-10 7.67010E-12
 -1         4 2.59214E+04-1.41102E+05 5.56711E+04-3.03688E+03 5.93430E-10 8.30172E-11
 -1         5 3.21966E+04-1.40683E+05 5.41803E+04-3.95587E+03 3.07090E-11 1.41104E-10
 -1         6 3.84806E+04-1.40148E+05 5.39311E+04-4.79204E+03-8.26027E-11-5.69510E-11
 -1         7 4.49387E+04-1.39466E+05 5.46634E+04-5.52551E+03 7.77645E-11-9.70460E-12
 -1         8 5.16304E+04-1.38638E+05 5.61849E+04-6.15359E+03-2.74163E-10-1.56755E-10
 -1         9 5.85656E+04-1.37678E+05 5.83501E+04-6.67826E+03 6.97742E-10-8.83606E-11
 -1        10 6.57286E+04-1.36600E+05 6.10455E+04-7.10053E+03-8.56269E-10 1.20781E-10
 -1        11 7.30866E+04-1.35422E+05 6.41793E+04-7.41802E+03 1.41370E-10 4.48975E-11
 -1        12 8.05922E+04-1.34159E+05 6.76725E+04-7.62390E+03 1.37720E-10 5.29662E-11
 -1        13 8.81814E+04-1.32828E+05 7.14526E+04-7.70648E+03 3.64918E-10 5.85925E-11
 -1        14 9.57710E+04-1.31448E+05 7.54484E+04-7.64897E+03-6.94868E-10-2.15699E-10
 -1        15 1.03254E+05-1.30043E+05 7.95848E+04-7.42926E+03 7.31688E-10 3.87601E-10
 -1        16 1.10492E+05-1.28643E+05 8.37786E+04-7.01978E+03 1.67369E-11-3.16545E-10
 -1        17 1.17314E+05-1.27287E+05 8.79338E+04-6.38737E+03 5.00399E-10 6.06035E-11
 -1        18 1.23501E+05-1.26025E+05 9.19370E+04-5.49344E+03-2.79665E-10 1.56319E-12
 -1        19 1.28785E+05-1.24919E+05 9.56527E+04-4.29442E+03 1.66175E-10 8.22916E-11
 -1        20 1.32833E+05-1.24051E+05 9.89183E+04-2.74341E+03 4.81489E-11-2.27770E-10
 -1        21 1.35245E+05-1.23519E+05 1.01539E+05-7.93136E+02-3.93178E-10-2.28806E-10
 -1        22 1.35539E+05-1.23438E+05 1.03287E+05 1.59749E+03-9.31254E-11-4.67684E-11
 -1        23 1.33159E+05-1.23938E+05 1.03898E+05 4.45159E+03 2.09911E-10-8.88309E-11
 -1        24 1.27482E+05-1.25140E+05 1.03082E+05 7.75175E+03-9.63135E-10-1.58563E-10
 -1        25 1.17865E+05-1.27123E+05 1.00548E+05 1.13983E+04 1.27672E-09 2.91004E-10
 -1        26 1.03747E+05-1.29829E+05 9.60640E+04 1.51305E+04 3.77457E-10 2.77234E-10
 -1        27 8.48756E+04-1.32881E+05 8.95788E+04 1.83750E+04-9.84646E-11-8.06006E-11
 -1        28 6.17683E+04-1.35186E+05 8.14926E+04 1.99526E+04-1.04280E-10 5.68630E-13
 -1        29 3.66771E+04-1.34138E+05 7.32008E+04 1.75410E+04-5.30753E-10-1.55600E-10
 -1        30 1.62324E+04-1.23862E+05 6.84486E+04 8.28504E+03 8.17688E-10 2.54360E-10
 -1        31 1.45417E+04-1.00174E+05 7.28799E+04 2.06795E+03-3.93230E-10 5.22482E-11
 -1       101 4.27265E+03-1.48801E+05 3.39352E+04-3.99717E+02-5.08290E-10-3.44159E-11
 -1       102 4.87019E+03-1.49215E+05 2.86155E+04-1.62684E+03 4.10480E-10-5.54268E-11
 -1       103 8.14859E+03-1.48895E+05 2.60622E+04-3.57874E+03-5.26731E-10-7.46664E-11
 -1       104 1.09190E+04-1.48991E+05 2.44388E+04-5.29341E+03-2.53647E-10 2.69118E-11
 -1       105 1.32570E+04-1.49351E+05 2.33864E+04-6.78138E+03-1.95430E-11-1.16346E-10
 -1       106 1.52628E+04-1.49887E+05 2.27057E+04-8.06186E+03 1.88084E-10 9.77981E-11
 -1       107 1.70250E+04-1.50546E+05 2.22788E+04-9.15272E+03-1.37638E-10-1.02313E-10
 -1       108 1.86046E+04-1.51301E+05 2.20298E+04-1.00654E+04 1.52998E-11 9.83557E-12
 -1       109 2.00356E+04-1.52139E+05 2.19048E+04-1.08054E+04 6.83463E-11 7.80988E-12
 -1       110 2.13303E+04-1.53060E+05 2.18624E+04-1.13721E+04 1.44425E-10 1.60395E-11
 -1       111 2.24844E+04-1.54066E+05 2.18681E+04-1.17583E+04-2.31158E-12-5.24782E-12
 -1       112 2.34805E+04-1.55164E+05 2.18913E+04-1.19506E+04-1.43125E-10-9.41189E-11
 -1       113 2.42918E+04-1.56362E+05 2.19038E+04-1.19290E+04-3.41222E-10-2.63659E-11
 -1       114 2.48843E+04-1.57670E+05 2.18791E+04-1.16669E+04 3.73707E-11 2.31114E-11
 -1       115 2.52189E+04-1.59094E+05 2.17917E+04-1.11315E+04-4.80781E-10-2.20472E-10
 -1       116 2.52537E+04-1.60641E+05 2.16179E+04-1.02834E+04 8.25323E-11 9.77428E-11
 -1       117 2.49470E+04-1.62313E+05 2.13357E+04-9.07756E+03-2.04283E-10 1.75637E-11
 -1       118 2.42603E+04-1.64109E+05 2.09268E+04-7.46384E+03-2.37949E-10-1.02773E-10
 -1       119 2.31637E+04-1.66017E+05 2.03778E+04-5.38840E+03 2.24656E-10 6.58780E-11
 -1       120 2.16421E+04-1.68013E+05 1.96835E+04-2.79655E+03-2.31979E-10 4.04770E-11
 -1       121 1.97036E+04-1.70056E+05 1.88502E+04 3.62891E+02 3.13002E-10 8.34313E-11
 -1       122 1.73902E+04-1.72075E+05 1.79014E+04 4.12998E+03-2.10068E-10-3.50677E-11
 -1       123 1.47898E+04-1.73955E+05 1.68836E+04 8.52154E+03 2.14480E-10-3.43106E-11
 -1       124 1.20473E+04-1.75518E+05 1.58743E+04 1.35115E+04 1.34182E-10 7.64474E-11
 -1       125 9.36938E+03-1.76485E+05 1.49898E+04 1.89993E+04-2.31440E-10-1.27644E-11
 -1       126 7.00879E+03-1.76417E+05 1.43906E+04 2.47599E+04-1.46049E-10-1.09684E-10
 -1       127 5.19676E+03-1.74617E+05 1.42788E+04 3.03621E+04 3.73501E-10 1.22124E-11
 -1       128 3.96115E+03-1.69950E+05 1.48746E+04 3.50273E+04-2.40918E-10-2.10182E-11
 -1       129 2.73702E+03-1.60483E+05 1.63594E+04 3.73265E+04 1.13699E-10-5.55921E-12
 -1       130 6.09865E+02-1.43286E+05 1.90190E+04 3.28302E+04-1.27593E-10-6.83445E-11
 -1       131 4.85665E+03-1.02820E+05 2.59847E+04 2.43590E+04 4.05080E-10 7.30575E-11
 -1       201 1.78011E+03-1.44135E+05 2.27504E+04-8.48705E+02-1.81155E-10-6.10149E-12
 -1       202 3.49297E+03-1.42741E+05 1.98525E+04-2.50881E+03-3.27202E-10-2.79313E-11
 -1       203 6.44122E+03-1.42339E+05 1.82369E+04-4.87679E+03 5.19705E-10 3.52881E-11
 -1       204 8.40683E+03-1.42438E+05 1.71578E+04-6.92971E+03-1.65043E-10-4.52716E-11
 -1       205 9.87286E+03-1.42769E+05 1.64272E+04-8.67287E+03-1.47471E-10-1.67403E-11
 -1       206 1.10388E+04-1.43204E+05 1.59315E+04-1.01712E+04 1.84198E-11-8.90854E-11
 -1       207 1.20030E+04-1.43689E+05 1.55978E+04-1.14537E+04 8.11532E-11 8.84361E-11
 -1       208 1.28222E+04-1.44205E+05 1.53781E+04-1.25336E+04 2.36582E-10 2.36023E-11
 -1       209 1.35294E+04-1.44751E+05 1.52387E+04-1.34135E+04 1.08602E-10 4.47910E-11
 -1       210 1.41425E+04-1.45337E+05 1.51550E+04-1.40886E+04-9.24706E-12-7.19585E-12
 -1       211 1.46687E+04-1.45979E+05 1.51081E+04-1.45472E+04-3.13020E-11 6.34803E-11
 -1       212 1.51078E+04-1.46694E+05 1.50823E+04-1.47708E+04-1.40921E-11-3.24618E-12
 -1       213 1.54539E+04-1.47506E+05 1.50644E+04-1.47349E+04 1.04883E-10 1.59456E-11
 -1       214 1.56973E+04-1.48436E+05 1.50424E+04-1.44083E+04-1.26620E-10 9.54450E-12
 -1       215 1.58257E+04-1.49510E+05 1.50053E+04-1.37537E+04-7.48523E-11 5.29093E-12
 -1       216 1.58255E+04-1.50754E+05 1.49427E+04-1.27279E+04-6.62630E-11-5.37123E-11
 -1       217 1.56833E+04-1.52193E+05 1.48450E+04-1.12826E+04 1.47159E-10 7.75174E-11
 -1       218 1.53867E+04-1.53852E+05 1.47034E+04-9.36562E+03 5.10972E-11-2.93693E-11
 -1       219 1.49265E+04-1.55754E+05 1.45099E+04-6.92289E+03 4.74951E-11-1.15834E-11
 -1       220 1.42982E+04-1.57914E+05 1.42586E+04-3.90195E+03 3.06271E-11 9.74430E-12
 -1       221 1.35041E+04-1.60333E+05 1.39461E+04-2.57050E+02 2.21389E-10 6.42271E-11
 -1       222 1.25540E+04-1.62987E+05 1.35730E+04 4.04317E+03-5.19347E-11-3.63622E-11
 -1       223 1.14655E+04-1.65808E+05 1.31458E+04 9.00432E+03 3.28384E-11-5.92578E-12
 -1       224 1.02598E+04-1.68650E+05 1.26797E+04 1.45901E+04 4.11303E-10 7.66704E-11
 -1       225 8.94887E+03-1.71236E+05 1.22025E+04 2.07005E+04-1.88551E-11-2.54223E-12
 -1       226 7.50433E+03-1.73057E+05 1.17599E+04 2.71432E+04 2.68030E-10 3.14293E-12
 -1       227 5.78543E+03-1.73194E+05 1.14236E+04 3.36015E+04 6.40168E-11 4.18610E-11
 -1       228 3.36827E+03-1.69984E+05 1.13018E+04 3.96124E+04-2.99753E-11-2.42250E-11
 -1       229-8.89893E+02-1.60344E+05 1.15493E+04 4.45562E+04 1.04023E-10 5.47175E-11
 -1       230-1.15432E+04-1.37269E+05 1.23174E+04 4.81468E+04-3.01733E-10 1.74394E-11
 -1       231-1.65202E+04-9.43216E+04 1.51414E+04 4.57071E+04 1.97885E-10-1.07554E-10
 -1       301 1.30265E+03-1.40499E+05 1.66222E+04-1.65694E+03 4.19289E-10 5.06047E-11
 -1       302 2.21109E+03-1.39376E+05 1.45390E+04-2.96206E+03 9.17913E-11 1.58719E-11
 -1       303 3.99015E+03-1.39254E+05 1.32471E+04-5.44246E+03-1.27833E-10-4.52457E-11
 -1       304 5.44843E+03-1.39546E+05 1.23927E+04-7.41232E+03 9.25704E-11-9.54501E-12
 -1       305 6.54138E+03-1.40048E+05 1.18021E+04-9.09720E+03 2.85422E-10 5.97472E-11
 -1       306 7.37014E+03-1.40655E+05 1.13833E+04-1.05462E+04-2.01303E-10-3.15025E-11
 -1       307 8.00785E+03-1.41322E+05 1.10790E+04-1.17881E+04 2.40335E-11-3.34219E-11
 -1       308 8.50194E+03-1.42032E+05 1.08519E+04-1.28340E+04-2.84804E-10-2.74500E-11
 -1       309 8.88282E+03-1.42788E+05 1.06758E+04-1.36848E+04-1.10716E-10-7.36620E-12
 -1       310 9.16947E+03-1.43603E+05 1.05319E+04-1.43338E+04 4.76950E-11-5.96571E-11
 -1       311 9.37283E+03-1.44494E+05 1.04056E+04-1.47682E+04 2.89385E-11 4.00220E-11
 -1       312 9.49811E+03-1.45485E+05 1.02854E+04-1.49692E+04 9.13971E-11 3.99367E-11
 -1       313 9.54645E+03-1.46600E+05 1.01614E+04-1.49129E+04 1.71607E-10 1.38477E-12
 -1       314 9.51622E+03-1.47868E+05 1.00249E+04-1.45699E+04 6.66805E-12 1.58752E-11
 -1       315 9.40411E+03-1.49318E+05 9.86829E+03-1.39055E+04-4.45072E-11-1.52367E-12
 -1       316 9.20610E+03-1.50978E+05 9.68442E+03-1.28806E+04 1.32907E-10 6.59086E-11
 -1       317 8.91826E+03-1.52878E+05 9.46689E+03-1.14516E+04-2.84293E-10-6.73273E-11
 -1       318 8.53750E+03-1.55045E+05 9.21010E+03-9.57230E+03-3.44648E-11-2.04018E-11
 -1       319 8.06204E+03-1.57502E+05 8.90943E+03-7.19499E+03 2.72422E-11-5.12605E-12
 -1       320 7.49151E+03-1.60264E+05 8.56169E+03-4.27339E+03 7.84096E-11 4.07143E-11
 -1       321 6.82614E+03-1.63329E+05 8.16560E+03-7.66099E+02 8.78330E-11-5.79034E-12
 -1       322 6.06439E+03-1.66668E+05 7.72259E+03 3.35828E+03 6.96683E-11 5.50579E-11
 -1       323 5.19743E+03-1.70208E+05 7.23761E+03 8.11476E+03-3.30446E-10-1.04306E-10
 -1       324 4.19788E+03-1.73805E+05 6.72034E+03 1.34942E+04-3.11197E-11-2.08117E-11
 -1       325 2.99807E+03-1.77197E+05 6.18632E+03 1.94560E+04-8.55518E-11 2.41462E-11
 -1       326 1.44866E+03-1.79935E+05 5.65812E+03 2.59246E+04 2.09975E-10 2.57765E-11
 -1       327-7.60140E+02-1.81262E+05 5.16579E+03 3.28024E+04-8.28019E-11 2.33089E-11
 -1       328-4.24971E+03-1.79911E+05 4.74536E+03 4.00284E+04 2.80984E-10 3.08126E-11
 -1       329-1.02906E+04-1.73721E+05 4.43213E+03 4.77979E+04 6.87514E-11-1.45570E-12
 -1       330-2.08126E+04-1.58927E+05 4.30553E+03 5.72417E+04 7.63782E-11-2.62365E-11
 -1       331-2.70746E+04-1.44787E+05 4.14984E+03 6.28859E+04-6.69764E-11 1.07455E-10
 -1       401 7.67436E+02-1.35886E+05 1.03050E+04-1.71576E+03-4.95922E-10-1.03163E-12
 -1       402 1.23992E+03-1.35913E+05 8.97191E+03-3.15678E+03-1.62169E-10-2.44400E-11
 -1       403 2.21464E+03-1.36109E+05 8.15114E+03-5.69070E+03 1.18653E-10 2.51024E-11
 -1       404 2.96438E+03-1.36626E+05 7.56667E+03-7.65500E+03-1.50848E-10-3.10554E-11
 -1       405 3.55096E+03-1.37310E+05 7.14250E+03-9.27673E+03-1.02574E-10-2.77055E-11
 -1       406 3.97610E+03-1.38092E+05 6.82024E+03-1.06570E+04 1.26165E-10-2.98784E-11
 -1       407 4.26313E+03-1.38937E+05 6.56273E+03-1.18337E+04-1.52610E-10-1.96505E-11
 -1       408 4.43520E+03-1.39838E+05 6.34508E+03-1.28218E+04 3.04606E-10 3.20191E-11
 -1       409 4.51109E+03-1.40800E+05 6.14985E+03-1.36230E+04-1.32228E-10-4.09237E-11
 -1       410 4.50490E+03-1.41838E+05 5.96427E+03-1.42309E+04-1.22116E-11 4.30432E-11
 -1       411 4.42678E+03-1.42975E+05 5.77853E+03-1.46326E+04 3.51712E-11-7.78819E-11
 -1       412 4.28382E+03-1.44235E+05 5.58474E+03-1.48100E+04 1.82925E-10 4.99497E-11
 -1       413 4.08080E+03-1.45647E+05 5.37632E+03-1.47403E+04-1.65919E-10-6.98946E-11
 -1       414 3.82096E+03-1.47243E+05 5.14753E+03-1.43959E+04 1.63989E-11-1.32218E-11
 -1       415 3.50661E+03-1.49053E+05 4.89332E+03-1.37451E+04 4.75890E-11 3.87098E-11
 -1       416 3.13964E+03-1.51111E+05 4.60918E+03-1.27519E+04-5.65442E-11-6.75871E-11
 -1       417 2.72184E+03-1.53449E+05 4.29113E+03-1.13769E+04 1.05089E-10 7.57970E-11
 -1       418 2.25496E+03-1.56095E+05 3.93583E+03-9.57792E+03-7.48240E-11-9.04786E-11
 -1       419 1.74030E+03-1.59075E+05 3.54068E+03-7.31080E+03-2.68230E-11 4.32791E-11
 -1       420 1.17759E+03-1.62403E+05 3.10402E+03-4.53118E+03 2.45513E-10 4.76234E-11
 -1       421 5.62658E+02-1.66079E+05 2.62535E+03-1.19613E+03-5.96451E-11 5.41416E-12
 -1       422-1.16932E+02-1.70076E+05 2.10564E+03 2.73375E+03-5.82676E-11-2.20350E-11
 -1       423-8.89450E+02-1.74328E+05 1.54749E+03 7.29263E+03 3.22220E-11 4.24585E-11
 -1       424-1.81186E+03-1.78708E+05 9.55267E+02 1.25091E+04-2.28241E-11-4.65181E-11
 -1       425-2.99102E+03-1.82995E+05 3.34956E+02 1.84099E+04-5.03160E-11 3.43394E-11
 -1       426-4.61789E+03-1.86832E+05-3.06699E+02 2.50336E+04-6.89530E-11-2.01023E-11
 -1       427-7.02067E+03-1.89658E+05-9.64020E+02 3.24668E+04 2.87910E-10-2.32219E-11
 -1       428-1.07420E+04-1.90620E+05-1.63607E+03 4.09314E+04-1.11522E-10 3.48275E-11
 -1       429-1.65886E+04-1.88494E+05-2.32988E+03 5.09795E+04 7.44159E-12-5.59188E-11
 -1       430-2.56211E+04-1.81805E+05-3.07826E+03 6.39121E+04 6.23393E-10-4.83188E-11
 -1       431-3.15583E+04-1.81114E+05-4.41067E+03 7.21206E+04-5.25706E-10 9.80127E-11
 -1       501 3.04008E+02-1.31337E+05 3.97284E+03-1.67688E+03-4.14804E-10-1.63127E-10
 -1       502 3.90998E+02-1.32168E+05 3.41082E+03-3.10475E+03 3.15660E-10 6.39629E-11
 -1       503 6.58242E+02-1.32898E+05 3.04694E+03-5.64587E+03 2.92682E-10 2.87266E-11
 -1       504 8.11879E+02-1.33703E+05 2.76342E+03-7.60039E+03 7.27774E-11 1.07323E-11
 -1       505 8.89501E+02-1.34599E+05 2.52722E+03-9.17878E+03-6.20950E-11-3.18180E-11
 -1       506 8.94663E+02-1.35564E+05 2.31909E+03-1.04940E+04 2.37433E-11 7.00451E-11
 -1       507 8.23346E+02-1.36589E+05 2.12400E+03-1.16010E+04 6.50575E-11-3.29103E-11
 -1       508 6.77972E+02-1.37676E+05 1.93104E+03-1.25229E+04-1.26504E-10-2.81627E-11
 -1       509 4.64242E+02-1.38836E+05 1.73205E+03-1.32657E+04 1.01193E-10 2.98105E-11
 -1       510 1.88941E+02-1.40089E+05 1.52076E+03-1.38252E+04-9.25918E-11 2.37509E-11
 -1       511-1.41143E+02-1.41460E+05 1.29217E+03-1.41904E+04-2.47882E-10-3.24701E-12
 -1       512-5.19616E+02-1.42976E+05 1.04212E+03-1.43447E+04-1.62545E-11-8.20292E-12
 -1       513-9.40514E+02-1.44670E+05 7.67051E+02-1.42670E+04 1.56753E-10 6.00873E-11
 -1       514-1.39820E+03-1.46575E+05 4.63844E+02-1.39319E+04-5.01363E-11-2.95038E-11
 -1       515-1.88719E+03-1.48726E+05 1.29733E+02-1.33103E+04-4.62350E-12 2.34345E-11
 -1       516-2.40216E+03-1.51157E+05-2.37723E+02-1.23690E+04-5.60660E-11-1.81270E-11
 -1       517-2.93797E+03-1.53905E+05-6.40621E+02-1.10717E+04 3.68387E-11 9.87976E-12
 -1       518-3.49015E+03-1.56999E+05-1.08068E+03-9.37857E+03-6.49210E-11-5.88161E-12
 -1       519-4.05582E+03-1.60469E+05-1.55917E+03-7.24694E+03 4.33257E-11 1.03418E-11
 -1       520-4.63537E+03-1.64332E+05-2.07686E+03-4.63157E+03 4.45090E-11-1.97818E-11
 -1       521-5.23541E+03-1.68593E+05-2.63397E+03-1.48471E+03-6.21071E-11-5.11177E-12
 -1       522-5.87335E+03-1.73235E+05-3.23019E+03 2.24440E+03-4.14720E-11 9.11785E-12
 -1       523-6.58463E+03-1.78209E+05-3.86481E+03 6.61126E+03-1.28061E-10 3.51314E-11
 -1       524-7.43346E+03-1.83419E+05-4.53707E+03 1.16806E+04 8.15465E-11-2.49753E-11
 -1       525-8.52844E+03-1.88704E+05-5.24686E+03 1.75363E+04 1.85360E-10 2.23854E-11
 -1       526-1.00436E+04-1.93812E+05-5.99597E+03 2.43010E+04 1.88958E-10 1.96651E-11
 -1       527-1.22439E+04-1.98378E+05-6.79020E+03 3.21742E+04-3.21526E-10-3.31006E-11
 -1       528-1.55051E+04-2.01909E+05-7.64238E+03 4.15016E+04 3.90213E-10 6.07105E-11
 -1       529-2.03091E+04-2.03818E+05-8.57800E+03 5.28930E+04 1.50008E-10 2.42786E-11
 -1       530-2.71557E+04-2.03576E+05-9.64279E+03 6.73806E+04-3.63765E-10 1.10495E-11
 -1       531-3.20430E+04-2.10837E+05-1.14587E+04 7.67588E+04-1.36385E-10 2.18180E-11
 -1       601-1.45777E+02-1.26992E+05-2.19738E+03-1.58059E+03 6.84564E-11-5.91755E-12
 -1       602-3.90426E+02-1.28430E+05-2.01354E+03-2.94900E+03 1.24733E-10 1.57899E-11
 -1       603-7.53092E+02-1.29656E+05-1.93124E+03-5.39532E+03-3.74096E-12-5.20169E-11
 -1       604-1.12217E+03-1.30802E+05-1.91770E+03-7.29630E+03 2.01234E-10 8.44741E-11
 -1       605-1.49507E+03-1.31942E+05-1.95765E+03-8.81921E+03 2.02647E-11 5.66026E-12
 -1       606-1.88183E+03-1.33108E+05-2.04115E+03-1.00697E+04 5.46568E-12-1.81832E-11
 -1       607-2.29452E+03-1.34316E+05-2.16245E+03-1.11072E+04 1.13348E-10 4.56698E-11
 -1       608-2.74184E+03-1.35585E+05-2.31880E+03-1.19615E+04-2.56812E-10-7.90334E-11
 -1       609-3.22735E+03-1.36935E+05-2.50904E+03-1.26436E+04-8.02129E-11 8.58378E-12
 -1       610-3.75070E+03-1.38391E+05-2.73291E+03-1.31530E+04 1.04184E-10 1.56744E-11
 -1       611-4.30898E+03-1.39982E+05-2.99064E+03-1.34813E+04 2.29106E-10 1.87584E-11
 -1       612-4.89758E+03-1.41738E+05-3.28274E+03-1.36143E+04-4.96905E-11 2.43163E-11
 -1       613-5.51079E+03-1.43694E+05-3.60990E+03-1.35332E+04-9.74625E-11-1.22489E-11
 -1       614-6.14209E+03-1.45886E+05-3.97285E+03-1.32151E+04 1.23735E-10 1.86557E-11
 -1       615-6.78442E+03-1.48352E+05-4.37236E+03-1.26332E+04 3.78800E-11-2.77025E-11
 -1       616-7.43040E+03-1.51129E+05-4.80911E+03-1.17570E+04 1.07396E-10 2.41632E-11
 -1       617-8.07275E+03-1.54255E+05-5.28371E+03-1.05523E+04 1.03548E-10-4.97760E-12
 -1       618-8.70496E+03-1.57766E+05-5.79661E+03-8.98097E+03-1.34530E-10 3.36118E-11
 -1       619-9.32242E+03-1.61694E+05-6.34808E+03-7.00069E+03-2.13470E-11-4.44347E-11
 -1       620-9.92414E+03-1.66064E+05-6.93825E+03-4.56427E+03-2.24484E-11-5.62748E-11
 -1       621-1.05155E+04-1.70889E+05-7.56709E+03-1.61854E+03-2.48260E-11 3.43714E-11
 -1       622-1.11120E+04-1.76168E+05-8.23461E+03 1.89785E+03-8.58879E-11-3.63073E-11
 -1       623-1.17450E+04-1.81876E+05-8.94111E+03 6.05823E+03 1.01480E-11 3.99580E-11
 -1       624-1.24689E+04-1.87956E+05-9.68759E+03 1.09546E+04 1.94166E-10-4.39966E-11
 -1       625-1.33702E+04-1.94310E+05-1.04766E+04 1.67090E+04-1.14199E-10-4.03797E-11
 -1       626-1.45778E+04-2.00793E+05-1.13131E+04 2.34920E+04 1.79472E-10-3.67979E-12
 -1       627-1.62705E+04-2.07206E+05-1.22064E+04 3.15526E+04-2.25896E-10-6.90308E-12
 -1       628-1.86754E+04-2.13313E+05-1.31722E+04 4.12616E+04-2.41446E-10-3.13983E-11
 -1       629-2.20438E+04-2.18888E+05-1.42359E+04 5.31691E+04-2.47083E-10-1.88314E-11
 -1       630-2.65886E+04-2.23836E+05-1.54371E+04 6.80634E+04-1.45046E-10 5.77735E-11
 -1       631-3.02955E+04-2.36338E+05-1.74217E+04 7.77114E+04-7.37560E-10-8.31189E-11
 -1       701-5.62821E+02-1.22924E+05-8.06175E+03-1.45366E+03-2.76035E-10 1.12452E-11
 -1       702-1.10576E+03-1.24847E+05-7.18005E+03-2.72602E+03-2.60875E-11-2.78828E-11
 -1       703-2.03698E+03-1.26506E+05-6.67584E+03-5.01094E+03-1.90732E-10-2.40769E-11
 -1       704-2.86688E+03-1.27985E+05-6.37752E+03-6.80458E+03-1.31355E-10-5.28413E-11
 -1       705-3.63508E+03-1.29383E+05-6.22512E+03-8.24324E+03-5.00722E-11 4.19980E-12
 -1       706-4.36937E+03-1.30758E+05-6.18152E+03-9.41649E+03 6.78061E-11 2.09050E-11
 -1       707-5.09072E+03-1.32153E+05-6.22322E+03-1.03801E+04 5.65205E-11 7.22184E-12
 -1       708-5.81392E+03-1.33601E+05-6.33514E+03-1.11653E+04-2.45579E-11-2.56160E-11
 -1       709-6.54803E+03-1.35132E+05-6.50747E+03-1.17864E+04 5.19437E-11-4.08599E-12
 -1       710-7.29711E+03-1.36777E+05-6.73377E+03-1.22460E+04-1.14209E-10 2.08741E-11
 -1       711-8.06133E+03-1.38571E+05-7.00971E+03-1.25386E+04-1.01807E-10-2.08264E-11
 -1       712-8.83792E+03-1.40547E+05-7.33236E+03-1.26529E+04-7.78828E-11-4.68201E-11
 -1       713-9.62190E+03-1.42743E+05-7.69970E+03-1.25725E+04-7.87590E-11-1.82213E-14
 -1       714-1.04066E+04-1.45197E+05-8.11029E+03-1.22771E+04-1.09493E-10-3.86254E-11
 -1       715-1.11841E+04-1.47950E+05-8.56310E+03-1.17424E+04 6.50488E-11 4.34651E-11
 -1       716-1.19457E+04-1.51043E+05-9.05731E+03-1.09404E+04-4.32456E-11-1.76811E-11
 -1       717-1.26824E+04-1.54517E+05-9.59224E+03-9.83881E+03-9.37120E-11-3.97220E-11
 -1       718-1.33855E+04-1.58412E+05-1.01673E+04-8.40097E+03-4.79218E-11-1.65431E-11
 -1       719-1.40477E+04-1.62767E+05-1.07818E+04-6.58482E+03 6.78658E-11 2.55128E-11
 -1       720-1.46648E+04-1.67614E+05-1.14354E+04-4.34177E+03 9.05699E-11 3.26971E-12
 -1       721-1.52373E+04-1.72981E+05-1.21275E+04-1.61467E+03 1.88167E-10 6.47981E-12
 -1       722-1.57735E+04-1.78883E+05-1.28581E+04 1.66506E+03-1.18928E-10 1.31530E-11
 -1       723-1.62929E+04-1.85324E+05-1.36276E+04 5.58217E+03 2.26465E-10-3.47986E-11
 -1       724-1.68299E+04-1.92288E+05-1.44371E+04 1.02444E+04-4.05274E-11-1.90155E-12
 -1       725-1.74386E+04-1.99739E+05-1.52896E+04 1.57929E+04-2.79555E-10-5.32388E-12
 -1       726-1.81951E+04-2.07620E+05-1.61899E+04 2.24165E+04 3.66155E-11 1.51148E-11
 -1       727-1.91973E+04-2.15863E+05-1.71466E+04 3.03723E+04 4.75872E-12 3.56041E-11
 -1       728-2.05557E+04-2.24400E+05-1.81723E+04 4.00091E+04 1.87816E-10-4.85641E-11
 -1       729-2.23721E+04-2.33212E+05-1.92863E+04 5.17934E+04-6.71943E-12 6.43745E-11
 -1       730-2.46982E+04-2.42396E+05-2.05156E+04 6.63236E+04 3.69734E-11-3.96513E-12
 -1       731-2.72459E+04-2.58667E+05-2.25136E+04 7.57212E+04-1.56458E-10 4.75298E-11
 -1       801-9.42114E+02-1.19199E+05-1.35006E+04-1.30465E+03 2.52646E-10 2.37337E-11
 -1       802-1.75054E+03-1.21517E+05-1.19833E+04-2.45689E+03-6.34168E-10-1.74217E-10
 -1       803-3.19042E+03-1.23545E+05-1.10907E+04-4.53166E+03 1.17886E-10 5.31989E-11
 -1       804-4.42668E+03-1.25328E+05-1.05274E+04-6.17475E+03 2.57778E-12-7.93980E-12
 -1       805-5.53935E+03-1.26972E+05-1.01932E+04-7.49759E+03 1.96304E-10 5.49648E-11
 -1       806-6.57624E+03-1.28554E+05-1.00266E+04-8.57468E+03-1.03810E-10-4.88553E-11
 -1       807-7.56812E+03-1.30133E+05-9.98809E+03-9.45442E+03 9.76750E-11-3.31039E-12
 -1       808-8.53529E+03-1.31752E+05-1.00519E+04-1.01660E+04-5.94838E-11 1.82490E-11
 -1       809-9.49049E+03-1.33454E+05-1.02006E+04-1.07244E+04 8.59727E-11 5.76188E-11
 -1       810-1.04407E+04-1.35275E+05-1.04221E+04-1.11344E+04 1.58366E-10 5.90575E-12
 -1       811-1.13880E+04-1.37254E+05-1.07079E+04-1.13928E+04-7.26045E-11-1.29362E-11
 -1       812-1.23313E+04-1.39429E+05-1.10520E+04-1.14907E+04 2.11294E-10 7.04262E-11
 -1       813-1.32660E+04-1.41841E+05-1.14499E+04-1.14145E+04-9.53807E-12-3.17721E-11
 -1       814-1.41856E+04-1.44531E+05-1.18981E+04-1.11465E+04-4.43383E-11-1.04252E-11
 -1       815-1.50815E+04-1.47542E+05-1.23940E+04-1.06650E+04 5.58778E-11 4.17095E-11
 -1       816-1.59438E+04-1.50919E+05-1.29355E+04-9.94425E+03 5.69735E-11 3.62702E-11
 -1       817-1.67616E+04-1.54708E+05-1.35207E+04-8.95444E+03-1.49592E-10-3.84594E-11
 -1       818-1.75238E+04-1.58954E+05-1.41481E+04-7.66058E+03 6.80841E-11 1.26470E-11
 -1       819-1.82197E+04-1.63701E+05-1.48163E+04-6.02173E+03 1.38898E-10 5.48906E-11
 -1       820-1.88398E+04-1.68994E+05-1.55240E+04-3.98931E+03-2.33814E-10-8.54877E-11
 -1       821-1.93776E+04-1.74873E+05-1.62702E+04-1.50493E+03 1.57535E-10 2.12841E-11
 -1       822-1.98305E+04-1.81374E+05-1.70542E+04 1.50284E+03-1.01942E-10-4.30180E-12
 -1       823-2.02022E+04-1.88527E+05-1.78758E+04 5.12299E+03 3.66744E-12-5.06780E-11
 -1       824-2.05034E+04-1.96356E+05-1.87356E+04 9.46817E+03-1.12652E-10 1.42500E-11
 -1       825-2.07534E+04-2.04879E+05-1.96351E+04 1.46829E+04 2.08264E-10 3.20188E-11
 -1       826-2.09788E+04-2.14112E+05-2.05777E+04 2.09543E+04-1.30196E-10-4.10371E-11
 -1       827-2.12099E+04-2.24079E+05-2.15684E+04 2.85237E+04 5.89609E-12 5.92817E-11
 -1       828-2.14713E+04-2.34826E+05-2.26152E+04 3.77004E+04-1.85616E-10-3.30865E-11
 -1       829-2.17660E+04-2.46450E+05-2.37293E+04 4.88703E+04-6.72661E-11-2.08532E-11
 -1       830-2.20515E+04-2.59140E+05-2.49256E+04 6.24957E+04-2.43442E-10-4.92571E-12
 -1       831-2.35307E+04-2.78285E+05-2.68612E+04 7.12909E+04 2.49993E-11-4.80775E-11
 -1       901-1.27830E+03-1.15870E+05-1.84122E+04-1.13983E+03 1.10448E-10-1.93008E-11
 -1       902-2.31939E+03-1.18510E+05-1.63312E+04-2.15393E+03 4.52129E-10 1.39869E-10
 -1       903-4.20654E+03-1.20851E+05-1.50908E+04-3.98312E+03-3.89437E-10-8.23889E-11
 -1       904-5.79676E+03-1.22897E+05-1.42883E+04-5.44198E+03 7.82386E-11 3.62318E-11
 -1       905-7.20651E+03-1.24765E+05-1.37880E+04-6.62148E+03-1.71742E-11-4.59066E-11
 -1       906-8.50289E+03-1.26541E+05-1.35069E+04-7.58261E+03-8.38394E-11-2.55787E-11
 -1       907-9.72686E+03-1.28292E+05-1.33919E+04-8.36585E+03-2.52840E-10-3.65000E-11
 -1       908-1.09042E+04-1.30072E+05-1.34077E+04-8.99660E+03 3.12145E-10 5.23000E-11
 -1       909-1.20508E+04-1.31930E+05-1.35301E+04-9.48892E+03 5.12318E-11 8.58854E-13
 -1       910-1.31756E+04-1.33910E+05-1.37423E+04-9.84812E+03-1.05593E-10-6.41451E-11
 -1       911-1.42824E+04-1.36055E+05-1.40321E+04-1.00728E+04-1.45434E-11 1.29370E-11
 -1       912-1.53706E+04-1.38407E+05-1.43906E+04-1.01562E+04-1.41281E-10-2.18524E-11
 -1       913-1.64363E+04-1.41010E+05-1.48112E+04-1.00871E+04-2.03065E-10-6.61027E-11
 -1       914-1.74726E+04-1.43907E+05-1.52887E+04-9.85035E+03 1.04131E-10 4.11062E-11
 -1       915-1.84704E+04-1.47147E+05-1.58191E+04-9.42691E+03 7.12160E-11-9.24840E-12
 -1       916-1.94185E+04-1.50776E+05-1.63990E+04-8.79391E+03-4.34268E-11-5.95627E-12
 -1       917-2.03040E+04-1.54844E+05-1.70255E+04-7.92408E+03 5.88025E-11-3.92399E-12
 -1       918-2.11129E+04-1.59404E+05-1.76963E+04-6.78504E+03 1.22281E-10 1.81708E-11
 -1       919-2.18302E+04-1.64508E+05-1.84090E+04-5.33814E+03-1.29617E-10-7.55306E-11
 -1       920-2.24405E+04-1.70208E+05-1.91617E+04-3.53687E+03-1.22743E-10-7.98298E-12
 -1       921-2.29288E+04-1.76561E+05-1.99527E+04-1.32462E+03 5.71692E-12-1.05843E-13
 -1       922-2.32804E+04-1.83620E+05-2.07803E+04 1.36830E+03 6.91485E-11-5.25123E-12
 -1       923-2.34819E+04-1.91442E+05-2.16433E+04 4.62857E+03-4.25197E-11 1.12828E-11
 -1       924-2.35205E+04-2.00085E+05-2.25409E+04 8.56490E+03-1.34706E-10-2.77383E-11
 -1       925-2.33833E+04-2.09611E+05-2.34730E+04 1.33141E+04-3.50704E-10-7.87687E-11
 -1       926-2.30547E+04-2.20094E+05-2.44400E+04 1.90483E+04 3.40578E-10 8.09091E-11
 -1       927-2.25114E+04-2.31624E+05-2.54433E+04 2.59821E+04-1.51779E-11-4.01971E-11
 -1       928-2.17154E+04-2.44321E+05-2.64856E+04 3.43792E+04 2.07026E-10 2.55874E-11
 -1       929-2.06027E+04-2.58354E+05-2.75705E+04 4.45551E+04-2.02935E-11-1.34218E-11
 -1       930-1.90702E+04-2.73958E+05-2.87025E+04 5.68738E+04 3.67621E-10 3.97691E-11
 -1       931-1.95988E+04-2.95376E+05-3.05422E+04 6.48126E+04-1.07928E-10-2.44903E-11
 -1      1001-1.56776E+03-1.12982E+05-2.27106E+04-9.63492E+02-3.20144E-10-7.58846E-11
 -1      1002-2.80768E+03-1.15883E+05-2.01443E+04-1.82597E+03 2.30232E-10 1.10518E-11
 -1      1003-5.07826E+03-1.18481E+05-1.86022E+04-3.38329E+03-3.83917E-11-2.33588E-11
 -1      1004-6.97014E+03-1.20752E+05-1.75906E+04-4.63227E+03-1.50009E-10 6.87465E-12
 -1      1005-8.63114E+03-1.22814E+05-1.69439E+04-5.64598E+03-3.35423E-11-9.20413E-12
 -1      1006-1.01457E+04-1.24760E+05-1.65608E+04-6.47342E+03-1.03795E-10-1.12494E-11
 -1      1007-1.15642E+04-1.26665E+05-1.63762E+04-7.14739E+03-1.61319E-10-2.77043E-11
 -1      1008-1.29179E+04-1.28589E+05-1.63468E+04-7.68897E+03-4.08438E-11 5.04829E-13
 -1      1009-1.42256E+04-1.30587E+05-1.64430E+04-8.11028E+03-2.80337E-10-7.93899E-11
 -1      1010-1.54980E+04-1.32708E+05-1.66436E+04-8.41644E+03 7.87812E-11 3.61764E-11
 -1      1011-1.67397E+04-1.34997E+05-1.69335E+04-8.60699E+03-5.89620E-11-1.99199E-11
 -1      1012-1.79507E+04-1.37502E+05-1.73013E+04-8.67683E+03 1.80884E-10 6.26203E-11
 -1      1013-1.91272E+04-1.40269E+05-1.77385E+04-8.61693E+03-5.84511E-11-1.96658E-11
 -1      1014-2.02620E+04-1.43346E+05-1.82385E+04-8.41464E+03 3.92752E-11-2.62022E-14
 -1      1015-2.13453E+04-1.46782E+05-1.87959E+04-8.05382E+03-3.51558E-10-7.49443E-11
 -1      1016-2.23645E+04-1.50629E+05-1.94064E+04-7.51461E+03 2.17364E-10 3.98739E-11
 -1      1017-2.33045E+04-1.54941E+05-2.00662E+04-6.77302E+03-2.43458E-11 5.74719E-12
 -1      1018-2.41481E+04-1.59775E+05-2.07721E+04-5.80014E+03-2.40490E-10-3.51263E-11
 -1      1019-2.48759E+04-1.65192E+05-2.15209E+04-4.56110E+03-8.56297E-11-7.65014E-12
 -1      1020-2.54664E+04-1.71255E+05-2.23101E+04-3.01350E+03 3.79290E-11-5.29318E-12
 -1      1021-2.58956E+04-1.78031E+05-2.31369E+04-1.10552E+03-7.26852E-11-9.69552E-12
 -1      1022-2.61373E+04-1.85593E+05-2.39987E+04 1.22673E+03 2.82701E-10 1.19554E-11
 -1      1023-2.61617E+04-1.94019E+05-2.48932E+04 4.06231E+03-2.55063E-10-4.73279E-11
 -1      1024-2.59349E+04-2.03396E+05-2.58180E+04 7.49934E+03 1.25515E-10 2.37553E-11
 -1      1025-2.54164E+04-2.13822E+05-2.67708E+04 1.16593E+04-6.70150E-11-2.96497E-11
 -1      1026-2.45564E+04-2.25413E+05-2.77492E+04 1.66918E+04 7.74764E-11 2.67591E-11
 -1      1027-2.32908E+04-2.38306E+05-2.87512E+04 2.27790E+04-3.09056E-10-7.21126E-11
 -1      1028-2.15355E+04-2.52674E+05-2.97741E+04 3.01387E+04-1.52996E-10-9.22288E-12
 -1      1029-1.91792E+04-2.68729E+05-3.08153E+04 3.90255E+04 4.53527E-10 7.15536E-11
 -1      1030-1.60763E+04-2.86740E+05-3.18711E+04 4.97275E+04-5.07881E-13 1.58743E-11
 -1      1031-1.57857E+04-3.09981E+05-3.36061E+04 5.66160E+04 1.84911E-10 4.21037E-11
 -1      1101-1.80773E+03-1.10573E+05-2.63239E+04-7.78904E+02 1.12531E-10-2.60395E-11
 -1      1102-3.21170E+03-1.13678E+05-2.33556E+04-1.47964E+03 3.94047E-10 7.60820E-11
 -1      1103-5.79945E+03-1.16484E+05-2.15619E+04-2.74567E+03-1.96818E-10-3.91379E-11
 -1      1104-7.93998E+03-1.18936E+05-2.03750E+04-3.76542E+03 1.30950E-10 4.38345E-11
 -1      1105-9.80691E+03-1.21160E+05-1.96046E+04-4.59576E+03 3.64852E-10 7.08442E-11
 -1      1106-1.14993E+04-1.23250E+05-1.91345E+04-5.27477E+03 2.90758E-10 3.94052E-11
 -1      1107-1.30760E+04-1.25286E+05-1.88898E+04-5.82807E+03-7.48928E-11-8.14566E-12
 -1      1108-1.45730E+04-1.27333E+05-1.88207E+04-6.27230E+03-1.59801E-10-2.96431E-11
 -1      1109-1.60116E+04-1.29450E+05-1.88928E+04-6.61726E+03 2.96224E-11 1.38473E-11
 -1      1110-1.74041E+04-1.31689E+05-1.90815E+04-6.86736E+03 2.17332E-10 3.85626E-11
 -1      1111-1.87559E+04-1.34100E+05-1.93692E+04-7.02255E+03 3.58503E-11 9.28260E-12
 -1      1112-2.00673E+04-1.36733E+05-1.97427E+04-7.07906E+03-1.30804E-10-5.55102E-11
 -1      1113-2.13343E+04-1.39638E+05-2.01917E+04-7.02984E+03 2.32414E-10 6.52289E-11
 -1      1114-2.25495E+04-1.42863E+05-2.07085E+04-6.86475E+03 1.82218E-10 3.93331E-11
 -1      1115-2.37020E+04-1.46463E+05-2.12867E+04-6.57059E+03-6.80460E-11-2.87259E-11
 -1      1116-2.47777E+04-1.50492E+05-2.19209E+04-6.13094E+03 3.42422E-11 7.31242E-12
 -1      1117-2.57597E+04-1.55008E+05-2.26067E+04-5.52568E+03 1.57199E-11 2.27785E-12
 -1      1118-2.66277E+04-1.60074E+05-2.33401E+04-4.73035E+03 2.04582E-11-1.63377E-11
 -1      1119-2.73578E+04-1.65757E+05-2.41173E+04-3.71523E+03-2.41870E-11 1.00121E-11
 -1      1120-2.79228E+04-1.72128E+05-2.49349E+04-2.44398E+03 1.09842E-10 3.93961E-11
 -1      1121-2.82907E+04-1.79268E+05-2.57893E+04-8.72107E+02 4.09307E-11 1.33969E-11
 -1      1122-2.84245E+04-1.87262E+05-2.66771E+04 1.05513E+03-7.94025E-11-2.71840E-11
 -1      1123-2.82806E+04-1.96208E+05-2.75946E+04 3.40511E+03 2.80162E-10 5.94939E-11
 -1      1124-2.78072E+04-2.06215E+05-2.85379E+04 6.26068E+03-3.12653E-10-1.86030E-11
 -1      1125-2.69417E+04-2.17409E+05-2.95026E+04 9.72310E+03 2.31238E-10 3.24279E-11
 -1      1126-2.56077E+04-2.29937E+05-3.04841E+04 1.39152E+04-1.93098E-10-3.23757E-11
 -1      1127-2.37105E+04-2.43971E+05-3.14767E+04 1.89839E+04 1.49524E-10 2.48045E-11
 -1      1128-2.11323E+04-2.59717E+05-3.24738E+04 2.51024E+04-1.75989E-12-2.60247E-12
 -1      1129-1.77275E+04-2.77422E+05-3.34677E+04 3.24703E+04-1.55764E-11-9.99280E-12
 -1      1130-1.33180E+04-2.97377E+05-3.44483E+04 4.13128E+04-2.26720E-10-3.66776E-11
 -1      1131-1.23474E+04-3.22068E+05-3.60844E+04 4.69994E+04 1.34811E-10 2.57114E-11
 -1      1201-1.99622E+03-1.08671E+05-2.91941E+04-5.88545E+02-3.14444E-10 8.55313E-13
 -1      1202-3.52864E+03-1.11931E+05-2.59102E+04-1.12009E+03-2.82175E-10-5.11813E-11
 -1      1203-6.36523E+03-1.14895E+05-2.39181E+04-2.08075E+03 4.28039E-10 4.96901E-11
 -1      1204-8.70042E+03-1.17488E+05-2.25922E+04-2.85704E+03-5.37570E-11-2.56740E-11
 -1      1205-1.07279E+04-1.19837E+05-2.17234E+04-3.49071E+03-2.29421E-10-2.51194E-11
 -1      1206-1.25585E+04-1.22042E+05-2.11836E+04-4.00976E+03 1.87970E-11 1.53003E-11
 -1      1207-1.42577E+04-1.24182E+05-2.08903E+04-4.43301E+03 8.67843E-11 1.00908E-11
 -1      1208-1.58654E+04-1.26328E+05-2.07885E+04-4.77276E+03-2.47065E-11-3.29413E-11
 -1      1209-1.74053E+04-1.28540E+05-2.08402E+04-5.03638E+03 9.78034E-11 2.29530E-11
 -1      1210-1.88908E+04-1.30874E+05-2.10183E+04-5.22726E+03 1.09928E-10 8.78290E-12
 -1      1211-2.03279E+04-1.33382E+05-2.13030E+04-5.34553E+03 6.06941E-11 2.60407E-11
 -1      1212-2.17171E+04-1.36117E+05-2.16796E+04-5.38850E+03-2.61412E-10-4.00302E-11
 -1      1213-2.30543E+04-1.39130E+05-2.21368E+04-5.35093E+03 6.43460E-11 9.77950E-12
 -1      1214-2.43316E+04-1.42473E+05-2.26656E+04-5.22519E+03-7.15305E-11-4.73208E-12
 -1      1215-2.55372E+04-1.46202E+05-2.32590E+04-5.00120E+03-4.49852E-11-9.26997E-12
 -1      1216-2.66559E+04-1.50375E+05-2.39109E+04-4.66630E+03-2.34083E-10-1.39260E-11
 -1      1217-2.76686E+04-1.55053E+05-2.46161E+04-4.20484E+03 8.52919E-11 4.30728E-12
 -1      1218-2.85525E+04-1.60304E+05-2.53701E+04-3.59766E+03 2.20815E-10 7.48278E-11
 -1      1219-2.92800E+04-1.66200E+05-2.61686E+04-2.82136E+03-6.42779E-11-6.11999E-12
 -1      1220-2.98188E+04-1.72820E+05-2.70073E+04-1.84729E+03-3.60666E-11-3.18819E-11
 -1      1221-3.01301E+04-1.80253E+05-2.78821E+04-6.40329E+02 4.75387E-11 8.64644E-12
 -1      1222-3.01684E+04-1.88597E+05-2.87886E+04 8.42601E+02-2.12884E-10-6.64110E-11
 -1      1223-2.98787E+04-1.97964E+05-2.97220E+04 2.65427E+03 4.72005E-11 1.22955E-11
 -1      1224-2.91955E+04-2.08479E+05-3.06772E+04 4.85906E+03-1.63440E-10 2.55672E-11
 -1      1225-2.80394E+04-2.20288E+05-3.16481E+04 7.53496E+03 9.18683E-12-1.69564E-11
 -1      1226-2.63141E+04-2.33562E+05-3.26278E+04 1.07755E+04-1.75441E-10-1.47444E-11
 -1      1227-2.39027E+04-2.48497E+05-3.36082E+04 1.46916E+04 3.37640E-10 3.62706E-11
 -1      1228-2.06634E+04-2.65323E+05-3.45795E+04 1.94124E+04-1.91169E-10-2.35337E-11
 -1      1229-1.64256E+04-2.84310E+05-3.55298E+04 2.50862E+04-2.56277E-10-1.90949E-11
 -1      1230-1.09856E+04-3.05768E+05-3.64449E+04 3.18804E+04-8.56295E-11-7.25185E-12
 -1      1231-9.47978E+03-3.31573E+05-3.79970E+04 3.62473E+04 1.10762E-10 2.01208E-11
 -1      1301-2.13178E+03-1.07298E+05-3.12761E+04-3.94314E+02 2.43493E-10 5.34125E-11
 -1      1302-3.75641E+03-1.10665E+05-2.77654E+04-7.51431E+02 4.66295E-11 1.29951E-11
 -1      1303-6.77189E+03-1.13741E+05-2.56302E+04-1.39697E+03-5.80871E-11 3.85476E-12
 -1      1304-9.24685E+03-1.16435E+05-2.42037E+04-1.91977E+03-8.87649E-11-8.03702E-12
 -1      1305-1.13894E+04-1.18874E+05-2.32634E+04-2.34729E+03-1.93205E-10-1.74842E-11
 -1      1306-1.33185E+04-1.21161E+05-2.26727E+04-2.69792E+03 2.18568E-10 3.88015E-13
 -1      1307-1.51050E+04-1.23377E+05-2.23437E+04-2.98402E+03 1.90399E-10 2.41398E-11
 -1      1308-1.67915E+04-1.25595E+05-2.22177E+04-3.21370E+03 8.20414E-11 4.59550E-12
 -1      1309-1.84034E+04-1.27877E+05-2.22540E+04-3.39187E+03 4.87345E-11 1.41695E-11
 -1      1310-1.99550E+04-1.30280E+05-2.24237E+04-3.52080E+03-1.76039E-10-2.16820E-11
 -1      1311-2.14529E+04-1.32859E+05-2.27056E+04-3.60064E+03-2.16112E-10-2.77899E-11
 -1      1312-2.28975E+04-1.35667E+05-2.30838E+04-3.62963E+03 1.24833E-10 1.06690E-12
 -1      1313-2.42847E+04-1.38758E+05-2.35462E+04-3.60431E+03-2.85603E-10-3.22594E-11
 -1      1314-2.56060E+04-1.42186E+05-2.40832E+04-3.51956E+03-5.64621E-11-8.50607E-12
 -1      1315-2.68491E+04-1.46009E+05-2.46869E+04-3.36857E+03 1.06730E-10 1.52011E-11
 -1      1316-2.79977E+04-1.50286E+05-2.53510E+04-3.14272E+03-4.71148E-12 5.76387E-12
 -1      1317-2.90313E+04-1.55082E+05-2.60697E+04-2.83130E+03 3.86791E-11-7.00610E-12
 -1      1318-2.99247E+04-1.60468E+05-2.68380E+04-2.42114E+03-1.34839E-10-1.00496E-11
 -1      1319-3.06478E+04-1.66520E+05-2.76511E+04-1.89611E+03 1.28592E-10-7.12727E-12
 -1      1320-3.11641E+04-1.73322E+05-2.85044E+04-1.23644E+03-4.64884E-11 4.02757E-12
 -1      1321-3.14302E+04-1.80971E+05-2.93930E+04-4.17907E+02-8.45518E-11-9.10600E-12
 -1      1322-3.13938E+04-1.89572E+05-3.03120E+04 5.89133E+02-8.43360E-12 3.60533E-11
 -1      1323-3.09921E+04-1.99246E+05-3.12558E+04 1.82087E+03 7.66085E-11-2.53045E-11
 -1      1324-3.01496E+04-2.10133E+05-3.22181E+04 3.32119E+03 8.13473E-11-2.89315E-12
 -1      1325-2.87751E+04-2.22392E+05-3.31916E+04 5.14296E+03-1.12377E-10-2.80246E-13
 -1      1326-2.67588E+04-2.36208E+05-3.41679E+04 7.34913E+03 1.17576E-10 3.89979E-12
 -1      1327-2.39688E+04-2.51793E+05-3.51370E+04 1.00138E+04 5.49697E-11-8.43834E-13
 -1      1328-2.02469E+04-2.69395E+05-3.60868E+04 1.32229E+04 2.84782E-11 1.22249E-11
 -1      1329-1.54050E+04-2.89298E+05-3.70028E+04 1.70750E+04-5.00141E-11 5.55049E-13
 -1      1330-9.22124E+03-3.11828E+05-3.78673E+04 2.16815E+04-3.17837E-11-1.75585E-11
 -1      1331-7.32947E+03-3.38424E+05-3.93560E+04 2.46413E+04 1.61537E-10 9.52411E-11
 -1      1401-2.21348E+03-1.06468E+05-3.25380E+04-1.97718E+02-1.62357E-10 4.58526E-12
 -1      1402-3.89361E+03-1.09899E+05-2.88907E+04-3.77084E+02-1.66620E-10-2.03144E-13
 -1      1403-7.01689E+03-1.13041E+05-2.66691E+04-7.01340E+02-1.18174E-10-1.75692E-11
 -1      1404-9.57600E+03-1.15795E+05-2.51818E+04-9.64284E+02-7.52131E-11 1.35606E-11
 -1      1405-1.17877E+04-1.18289E+05-2.41981E+04-1.17954E+03 1.17619E-10 1.70384E-11
 -1      1406-1.37760E+04-1.20625E+05-2.35764E+04-1.35622E+03-2.02318E-10 1.18983E-12
 -1      1407-1.56148E+04-1.22888E+05-2.32256E+04-1.50045E+03-2.06732E-10-2.18735E-11
 -1      1408-1.73484E+04-1.25149E+05-2.30847E+04-1.61625E+03-2.46731E-11 1.27849E-12
 -1      1409-1.90033E+04-1.27473E+05-2.31114E+04-1.70608E+03-3.94152E-11 1.19862E-11
 -1      1410-2.05946E+04-1.29918E+05-2.32758E+04-1.77107E+03-5.79146E-11 4.98165E-12
 -1      1411-2.21287E+04-1.32540E+05-2.35557E+04-1.81130E+03-1.43410E-10-1.69381E-11
 -1      1412-2.36065E+04-1.35393E+05-2.39347E+04-1.82591E+03-6.51122E-11-3.23286E-12
 -1      1413-2.50236E+04-1.38531E+05-2.44000E+04-1.81318E+03 1.34974E-10-4.35517E-12
 -1      1414-2.63712E+04-1.42011E+05-2.49416E+04-1.77053E+03-2.23219E-10-1.33294E-11
 -1      1415-2.76367E+04-1.45891E+05-2.55514E+04-1.69452E+03-1.54799E-11-4.81173E-13
 -1      1416-2.88028E+04-1.50231E+05-2.62226E+04-1.58079E+03-1.66477E-10-1.41717E-11
 -1      1417-2.98483E+04-1.55099E+05-2.69492E+04-1.42390E+03-2.44137E-10-2.20079E-12
 -1      1418-3.07468E+04-1.60566E+05-2.77259E+04-1.21716E+03-4.53361E-11-2.85818E-11
 -1      1419-3.14660E+04-1.66713E+05-2.85476E+04-9.52316E+02-5.23756E-11 2.69498E-11
 -1      1420-3.19674E+04-1.73627E+05-2.94094E+04-6.19307E+02-5.46929E-11 2.74949E-12
 -1      1421-3.22043E+04-1.81407E+05-3.03061E+04-2.05764E+02-1.24500E-10-1.07975E-11
 -1      1422-3.21205E+04-1.90165E+05-3.12322E+04 3.03392E+02-9.34675E-11-1.15661E-11
 -1      1423-3.16484E+04-2.00028E+05-3.21817E+04 9.26544E+02-1.40546E-11-5.32084E-12
 -1      1424-3.07066E+04-2.11142E+05-3.31477E+04 1.68592E+03-1.52017E-10-1.61859E-11
 -1      1425-2.91969E+04-2.23674E+05-3.41221E+04 2.60818E+03-3.68809E-11 8.73927E-12
 -1      1426-2.70017E+04-2.37818E+05-3.50955E+04 3.72496E+03-9.70239E-11-2.90791E-12
 -1      1427-2.39803E+04-2.53796E+05-3.60568E+04 5.07336E+03-2.73362E-10-3.27511E-12
 -1      1428-1.99648E+04-2.71864E+05-3.69925E+04 6.69634E+03 1.65206E-10 2.99759E-11
 -1      1429-1.47570E+04-2.92317E+05-3.78866E+04 8.64306E+03-1.09036E-10-3.17519E-11
 -1      1430-8.12366E+03-3.15492E+05-3.87196E+04 1.09694E+04 1.85256E-10 1.93243E-11
 -1      1431-5.99880E+03-3.42561E+05-4.01689E+04 1.24638E+04-9.25311E-11-5.15529E-12
 -1      1501-2.24077E+03-1.06190E+05-3.29608E+04-1.14220E+03 2.90161E-11-9.94140E-11
 -1      1502-3.93943E+03-1.09643E+05-2.92679E+04-1.14943E+03 1.00338E-10 4.23787E-11
 -1      1503-7.09872E+03-1.12807E+05-2.70174E+04-1.17276E+03-7.22487E-11-7.42057E-12
 -1      1504-9.68594E+03-1.15580E+05-2.55097E+04-1.20797E+03 7.55199E-10 2.88736E-12
 -1      1505-1.19207E+04-1.18092E+05-2.45114E+04-1.25254E+03-1.39457E-10-2.36007E-11
 -1      1506-1.39288E+04-1.20445E+05-2.38793E+04-1.30484E+03-2.60892E-10-3.51898E-12
 -1      1507-1.57849E+04-1.22724E+05-2.35212E+04-1.36378E+03 4.57423E-10 2.15697E-11
 -1      1508-1.75342E+04-1.25000E+05-2.33753E+04-1.42857E+03-2.56938E-10 2.62073E-12
 -1      1509-1.92035E+04-1.27337E+05-2.33988E+04-1.49860E+03 2.65459E-10 5.88082E-12
 -1      1510-2.08079E+04-1.29797E+05-2.35613E+04-1.57333E+03-3.08415E-10-1.33619E-11
 -1      1511-2.23542E+04-1.32433E+05-2.38406E+04-1.65226E+03 3.71466E-10 3.59548E-11
 -1      1512-2.38430E+04-1.35301E+05-2.42198E+04-1.73490E+03-9.07644E-11 7.90099E-12
 -1      1513-2.52700E+04-1.38455E+05-2.46860E+04-1.82072E+03-3.85325E-10-6.80132E-13
 -1      1514-2.66264E+04-1.41952E+05-2.52291E+04-1.90914E+03 1.09459E-10-1.59990E-11
 -1      1515-2.78992E+04-1.45851E+05-2.58409E+04-1.99947E+03 1.81101E-11 3.99255E-11
 -1      1516-2.90712E+04-1.50212E+05-2.65144E+04-2.09095E+03-1.49402E-10 2.86325E-12
 -1      1517-3.01206E+04-1.55104E+05-2.72436E+04-2.18262E+03 1.31061E-10-2.30023E-11
 -1      1518-3.10205E+04-1.60599E+05-2.80230E+04-2.27335E+03-1.24974E-10-3.73609E-11
 -1      1519-3.17384E+04-1.66778E+05-2.88476E+04-2.36171E+03 4.81226E-11 3.77873E-11
 -1      1520-3.22345E+04-1.73729E+05-2.97122E+04-2.44593E+03-9.64496E-11-6.11030E-11
 -1      1521-3.24613E+04-1.81553E+05-3.06115E+04-2.52378E+03 2.60910E-10 1.94853E-11
 -1      1522-3.23613E+04-1.90364E+05-3.15400E+04-2.59246E+03-1.89156E-10-1.71997E-11
 -1      1523-3.18652E+04-2.00290E+05-3.24913E+04-2.64845E+03 1.50683E-11 5.34609E-12
 -1      1524-3.08896E+04-2.11480E+05-3.34584E+04-2.68737E+03 1.12307E-10-2.02584E-11
 -1      1525-2.93342E+04-2.24104E+05-3.44330E+04-2.70382E+03 2.33909E-10 2.40834E-11
 -1      1526-2.70787E+04-2.38358E+05-3.54053E+04-2.69117E+03 1.91120E-10 2.27925E-11
 -1      1527-2.39794E+04-2.54467E+05-3.63638E+04-2.64149E+03-2.64672E-10-2.47928E-11
 -1      1528-1.98654E+04-2.72692E+05-3.72947E+04-2.54527E+03 1.29461E-10-1.37121E-11
 -1      1529-1.45351E+04-2.93329E+05-3.81812E+04-2.39140E+03 4.75807E-11-4.71965E-12
 -1      1530-7.75132E+03-3.16717E+05-3.90034E+04-2.16690E+03-3.17099E-10 5.63696E-11
 -1      1531-5.54851E+03-3.43945E+05-4.04394E+04-1.91282E+03 1.60490E-10-8.26172E-11
 -3
    1PSTEP                         7           4           1          
  100CL  104 4.00000E-01         496                     0    4           1
 -4  DISP        4    1
 -5  D1          1    2    1    0
 -5  D2          1    2    2    0
 -5  D3          1    2    3    0
 -5  ALL         1    2    0    0    1ALL
 -1         1 7.72495E-09 4.58542E-08 4.73001E-25
 -1         2 8.05035E-09 4.65033E-08 4.92925E-25
 -1         3 8.49508E-09 4.71150E-08 5.20157E-25
 -1         4 9.02962E-09 4.77006E-08 5.52887E-25
 -1         5 9.64052E-09 4.82711E-08 5.90292E-25
 -1         6 1.03216E-08 4.88398E-08 6.31997E-25
 -1         7 1.10703E-08 4.94211E-08 6.77836E-25
 -1         8 1.18854E-08 5.00304E-08 7.27750E-25
 -1         9 1.27671E-08 5.06839E-08 7.81733E-25
 -1        10 1.37155E-08 5.13986E-08 8.39807E-25
 -1        11 1.47312E-08 5.21922E-08 9.01996E-25
 -1        12 1.58144E-08 5.30831E-08 9.68321E-25
 -1        13 1.69651E-08 5.40911E-08 1.03878E-24
 -1        14 1.81829E-08 5.52367E-08 1.11334E-24
 -1        15 1.94664E-08 5.65418E-08 1.19193E-24
 -1        16 2.08135E-08 5.80296E-08 1.27442E-24
 -1        17 2.22205E-08 5.97242E-08 1.36057E-24
 -1        18 2.36824E-08 6.16509E-08 1.45008E-24
 -1        19 2.51919E-08 6.38360E-08 1.54251E-24
 -1        20 2.67391E-08 6.63057E-08 1.63724E-24
 -1        21 2.83109E-08 6.90860E-08 1.73349E-24
 -1        22 2.98907E-08 7.22013E-08 1.83021E-24
 -1        23 3.14569E-08 7.56725E-08 1.92611E-24
 -1        24 3.29830E-08 7.95145E-08 2.01956E-24
 -1        25 3.44365E-08 8.37327E-08 2.10856E-24
 -1        26 3.57790E-08 8.83166E-08 2.19076E-24
 -1        27 3.69668E-08 9.32316E-08 2.26349E-24
 -1        28 3.79535E-08 9.84048E-08 2.32391E-24
 -1        29 3.86971E-08 1.03703E-07 2.36944E-24
 -1        30 3.91747E-08 1.08894E-07 2.39868E-24
 -1        31 3.94272E-08 1.13683E-07 2.41414E-24
 -1       101 5.65342E-09 4.03441E-08 3.46161E-25
 -1       102 6.05484E-09 4.10100E-08 3.70739E-25
 -1       103 6.51792E-09 4.16172E-08 3.99094E-25
 -1       104 7.03197E-09 4.21810E-08 4.30570E-25
 -1       105 7.58850E-09 4.27177E-08 4.64647E-25
 -1       106 8.18112E-09 4.32439E-08 5.00933E-25
 -1       107 8.80523E-09 4.37760E-08 5.39147E-25
 -1       108 9.45755E-09 4.43307E-08 5.79089E-25
 -1       109 1.01356E-08 4.49253E-08 6.20608E-25
 -1       110 1.08374E-08 4.55773E-08 6.63580E-25
 -1       111 1.15611E-08 4.63052E-08 7.07893E-25
 -1       112 1.23048E-08 4.71283E-08 7.53429E-25
 -1       113 1.30664E-08 4.80669E-08 8.00057E-25
 -1       114 1.38432E-08 4.91426E-08 8.47626E-25
 -1       115 1.46325E-08 5.03784E-08 8.95955E-25
 -1       116 1.54308E-08 5.17985E-08 9.44834E-25
 -1       117 1.62340E-08 5.34285E-08 9.94015E-25
 -1       118 1.70376E-08 5.52955E-08 1.04322E-24
 -1       119 1.78365E-08 5.74274E-08 1.09213E-24
 -1       120 1.86250E-08 5.98529E-08 1.14042E-24
 -1       121 1.93975E-08 6.26006E-08 1.18771E-24
 -1       122 2.01480E-08 6.56982E-08 1.23367E-24
 -1       123 2.08712E-08 6.91703E-08 1.27795E-24
 -1       124 2.15627E-08 7.30372E-08 1.32029E-24
 -1       125 2.22192E-08 7.73108E-08 1.36049E-24
 -1       126 2.28398E-08 8.19905E-08 1.39849E-24
 -1       127 2.34247E-08 8.70574E-08 1.43430E-24
 -1       128 2.39740E-08 9.24657E-08 1.46793E-24
 -1       129 2.44812E-08 9.81323E-08 1.49899E-24
 -1       130 2.49191E-08 1.03918E-07 1.52580E-24
 -1       131 2.52358E-08 1.09470E-07 1.54520E-24
 -1       201 4.94258E-09 3.68143E-08 3.02636E-25
 -1       202 5.24822E-09 3.75048E-08 3.21350E-25
 -1       203 5.63534E-09 3.81230E-08 3.45054E-25
 -1       204 6.07507E-09 3.86865E-08 3.71978E-25
 -1       205 6.55333E-09 3.92177E-08 4.01263E-25
 -1       206 7.06195E-09 3.97351E-08 4.32406E-25
 -1       207 7.59551E-09 4.02558E-08 4.65075E-25
 -1       208 8.15018E-09 4.07958E-08 4.99038E-25
 -1       209 8.72314E-09 4.13715E-08 5.34121E-25
 -1       210 9.31217E-09 4.19992E-08 5.70187E-25
 -1       211 9.91537E-09 4.26959E-08 6.07121E-25
 -1       212 1.05310E-08 4.34794E-08 6.44815E-25
 -1       213 1.11572E-08 4.43683E-08 6.83162E-25
 -1       214 1.17923E-08 4.53822E-08 7.22046E-25
 -1       215 1.24341E-08 4.65421E-08 7.61344E-25
 -1       216 1.30804E-08 4.78702E-08 8.00919E-25
 -1       217 1.37288E-08 4.93898E-08 8.40620E-25
 -1       218 1.43766E-08 5.11255E-08 8.80281E-25
 -1       219 1.50208E-08 5.31033E-08 9.19728E-25
 -1       220 1.56586E-08 5.53496E-08 9.58780E-25
 -1       221 1.62869E-08 5.78916E-08 9.97254E-25
 -1       222 1.69030E-08 6.07561E-08 1.03497E-24
 -1       223 1.75041E-08 6.39689E-08 1.07178E-24
 -1       224 1.80877E-08 6.75536E-08 1.10752E-24
 -1       225 1.86515E-08 7.15301E-08 1.14204E-24
 -1       226 1.91922E-08 7.59133E-08 1.17515E-24
 -1       227 1.97037E-08 8.07113E-08 1.20646E-24
 -1       228 2.01722E-08 8.59258E-08 1.23515E-24
 -1       229 2.05656E-08 9.15575E-08 1.25924E-24
 -1       230 2.08065E-08 9.76228E-08 1.27399E-24
 -1       231 2.06335E-08 1.04287E-07 1.26339E-24
 -1       301 4.07995E-09 3.33634E-08 2.49817E-25
 -1       302 4.37777E-09 3.40964E-08 2.68052E-25
 -1       303 4.71854E-09 3.47163E-08 2.88918E-25
 -1       304 5.09770E-09 3.52737E-08 3.12134E-25
 -1       305 5.50623E-09 3.57941E-08 3.37148E-25
 -1       306 5.93743E-09 3.62977E-08 3.63550E-25
 -1       307 6.38650E-09 3.68019E-08 3.91048E-25
 -1       308 6.84993E-09 3.73225E-08 4.19424E-25
 -1       309 7.32504E-09 3.78747E-08 4.48515E-25
 -1       310 7.80972E-09 3.84738E-08 4.78191E-25
 -1       311 8.30222E-09 3.91353E-08 5.08348E-25
 -1       312 8.80106E-09 3.98757E-08 5.38891E-25
 -1       313 9.30486E-09 4.07116E-08 5.69739E-25
 -1       314 9.81231E-09 4.16612E-08 6.00811E-25
 -1       315 1.03221E-08 4.27433E-08 6.32028E-25
 -1       316 1.08330E-08 4.39780E-08 6.63311E-25
 -1       317 1.13437E-08 4.53866E-08 6.94580E-25
 -1       318 1.18528E-08 4.69916E-08 7.25753E-25
 -1       319 1.23591E-08 4.88166E-08 7.56752E-25
 -1       320 1.28612E-08 5.08863E-08 7.87495E-25
 -1       321 1.33579E-08 5.32263E-08 8.17906E-25
 -1       322 1.38478E-08 5.58625E-08 8.47906E-25
 -1       323 1.43295E-08 5.88213E-08 8.77403E-25
 -1       324 1.48011E-08 6.21288E-08 9.06273E-25
 -1       325 1.52590E-08 6.58107E-08 9.34314E-25
 -1       326 1.56973E-08 6.98924E-08 9.61154E-25
 -1       327 1.61044E-08 7.44003E-08 9.86075E-25
 -1       328 1.64574E-08 7.93657E-08 1.00769E-24
 -1       329 1.67129E-08 8.48350E-08 1.02334E-24
 -1       330 1.67847E-08 9.08993E-08 1.02773E-24
 -1       331 1.65306E-08 9.77532E-08 1.01217E-24
 -1       401 3.18004E-09 3.00383E-08 1.94715E-25
 -1       402 3.46688E-09 3.07787E-08 2.12278E-25
 -1       403 3.77936E-09 3.13975E-08 2.31411E-25
 -1       404 4.11170E-09 3.19437E-08 2.51761E-25
 -1       405 4.46083E-09 3.24486E-08 2.73138E-25
 -1       406 4.82318E-09 3.29338E-08 2.95325E-25
 -1       407 5.19567E-09 3.34170E-08 3.18132E-25
 -1       408 5.57570E-09 3.39134E-08 3.41402E-25
 -1       409 5.96121E-09 3.44376E-08 3.65006E-25
 -1       410 6.35048E-09 3.50038E-08 3.88842E-25
 -1       411 6.74215E-09 3.56262E-08 4.12824E-25
 -1       412 7.13506E-09 3.63197E-08 4.36882E-25
 -1       413 7.52827E-09 3.70994E-08 4.60958E-25
 -1       414 7.92098E-09 3.79817E-08 4.85004E-25
 -1       415 8.31253E-09 3.89837E-08 5.08979E-25
 -1       416 8.70236E-09 4.01235E-08 5.32848E-25
 -1       417 9.09003E-09 4.14203E-08 5.56585E-25
 -1       418 9.47520E-09 4.28946E-08 5.80170E-25
 -1       419 9.85764E-09 4.45680E-08 6.03586E-25
 -1       420 1.02371E-08 4.64634E-08 6.26824E-25
 -1       421 1.06135E-08 4.86047E-08 6.49871E-25
 -1       422 1.09864E-08 5.10172E-08 6.72703E-25
 -1       423 1.13550E-08 5.37271E-08 6.95270E-25
 -1       424 1.17174E-08 5.67623E-08 7.17457E-25
 -1       425 1.20697E-08 6.01521E-08 7.39033E-25
 -1       426 1.24048E-08 6.39289E-08 7.59550E-25
 -1       427 1.27093E-08 6.81302E-08 7.78194E-25
 -1       428 1.29598E-08 7.28036E-08 7.93532E-25
 -1       429 1.31167E-08 7.80162E-08 8.03139E-25
 -1       430 1.31177E-08 8.38729E-08 8.03199E-25
 -1       431 1.28724E-08 9.05470E-08 7.88184E-25
 -1       501 2.27823E-09 2.68397E-08 1.39497E-25
 -1       502 2.55567E-09 2.75634E-08 1.56485E-25
 -1       503 2.84253E-09 2.81677E-08 1.74049E-25
 -1       504 3.13584E-09 2.86968E-08 1.92008E-25
 -1       505 3.43407E-09 2.91813E-08 2.10269E-25
 -1       506 3.73599E-09 2.96437E-08 2.28756E-25
 -1       507 4.04017E-09 3.01015E-08 2.47381E-25
 -1       508 4.34522E-09 3.05695E-08 2.66059E-25
 -1       509 4.64983E-09 3.10616E-08 2.84711E-25
 -1       510 4.95292E-09 3.15907E-08 3.03269E-25
 -1       511 5.25357E-09 3.21701E-08 3.21678E-25
 -1       512 5.55107E-09 3.28130E-08 3.39894E-25
 -1       513 5.84490E-09 3.35333E-08 3.57885E-25
 -1       514 6.13474E-09 3.43454E-08 3.75632E-25
 -1       515 6.42045E-09 3.52649E-08 3.93126E-25
 -1       516 6.70207E-09 3.63080E-08 4.10370E-25
 -1       517 6.97983E-09 3.74920E-08 4.27377E-25
 -1       518 7.25414E-09 3.88355E-08 4.44173E-25
 -1       519 7.52553E-09 4.03581E-08 4.60791E-25
 -1       520 7.79462E-09 4.20809E-08 4.77267E-25
 -1       521 8.06201E-09 4.40265E-08 4.93639E-25
 -1       522 8.32804E-09 4.62188E-08 5.09929E-25
 -1       523 8.59252E-09 4.86839E-08 5.26122E-25
 -1       524 8.85410E-09 5.14500E-08 5.42139E-25
 -1       525 9.10953E-09 5.45487E-08 5.57779E-25
 -1       526 9.35232E-09 5.80158E-08 5.72645E-25
 -1       527 9.57098E-09 6.18945E-08 5.86034E-25
 -1       528 9.74659E-09 6.62390E-08 5.96787E-25
 -1       529 9.85014E-09 7.11216E-08 6.03128E-25
 -1       530 9.84042E-09 7.66431E-08 6.02532E-25
 -1       531 9.66555E-09 8.29468E-08 5.91825E-25
 -1       601 1.40081E-09 2.37635E-08 8.57721E-26
 -1       602 1.66907E-09 2.44528E-08 1.02197E-25
 -1       603 1.93254E-09 2.50296E-08 1.18330E-25
 -1       604 2.19098E-09 2.55331E-08 1.34154E-25
 -1       605 2.44455E-09 2.59916E-08 1.49680E-25
 -1       606 2.69330E-09 2.64264E-08 1.64912E-25
 -1       607 2.93707E-09 2.68545E-08 1.79837E-25
 -1       608 3.17542E-09 2.72902E-08 1.94432E-25
 -1       609 3.40789E-09 2.77461E-08 2.08666E-25
 -1       610 3.63396E-09 2.82344E-08 2.22509E-25
 -1       611 3.85327E-09 2.87671E-08 2.35937E-25
 -1       612 4.06554E-09 2.93560E-08 2.48934E-25
 -1       613 4.27069E-09 3.00136E-08 2.61496E-25
 -1       614 4.46884E-09 3.07530E-08 2.73628E-25
 -1       615 4.66030E-09 3.15877E-08 2.85351E-25
 -1       616 4.84561E-09 3.25323E-08 2.96698E-25
 -1       617 5.02556E-09 3.36025E-08 3.07716E-25
 -1       618 5.20111E-09 3.48147E-08 3.18466E-25
 -1       619 5.37345E-09 3.61870E-08 3.29018E-25
 -1       620 5.54387E-09 3.77385E-08 3.39453E-25
 -1       621 5.71366E-09 3.94903E-08 3.49849E-25
 -1       622 5.88394E-09 4.14649E-08 3.60276E-25
 -1       623 6.05536E-09 4.36876E-08 3.70772E-25
 -1       624 6.22765E-09 4.61861E-08 3.81321E-25
 -1       625 6.39898E-09 4.89924E-08 3.91811E-25
 -1       626 6.56515E-09 5.21433E-08 4.01986E-25
 -1       627 6.71852E-09 5.56834E-08 4.11377E-25
 -1       628 6.84677E-09 5.96676E-08 4.19230E-25
 -1       629 6.93202E-09 6.41658E-08 4.24450E-25
 -1       630 6.95081E-09 6.92687E-08 4.25600E-25
 -1       631 6.87613E-09 7.50943E-08 4.21028E-25
 -1       701 5.67721E-10 2.08033E-08 3.47617E-26
 -1       702 8.27322E-10 2.14442E-08 5.06572E-26
 -1       703 1.06936E-09 2.19822E-08 6.54773E-26
 -1       704 1.29647E-09 2.24516E-08 7.93833E-26
 -1       705 1.51039E-09 2.28777E-08 9.24819E-26
 -1       706 1.71228E-09 2.32800E-08 1.04844E-25
 -1       707 1.90284E-09 2.36742E-08 1.16511E-25
 -1       708 2.08242E-09 2.40734E-08 1.27507E-25
 -1       709 2.25119E-09 2.44895E-08 1.37841E-25
 -1       710 2.40923E-09 2.49335E-08 1.47518E-25
 -1       711 2.55662E-09 2.54160E-08 1.56543E-25
 -1       712 2.69355E-09 2.59479E-08 1.64927E-25
 -1       713 2.82031E-09 2.65400E-08 1.72689E-25
 -1       714 2.93743E-09 2.72039E-08 1.79860E-25
 -1       715 3.04564E-09 2.79517E-08 1.86485E-25
 -1       716 3.14590E-09 2.87963E-08 1.92625E-25
 -1       717 3.23945E-09 2.97514E-08 1.98353E-25
 -1       718 3.32778E-09 3.08320E-08 2.03761E-25
 -1       719 3.41262E-09 3.20540E-08 2.08956E-25
 -1       720 3.49589E-09 3.34349E-08 2.14054E-25
 -1       721 3.57960E-09 3.49939E-08 2.19180E-25
 -1       722 3.66574E-09 3.67521E-08 2.24454E-25
 -1       723 3.75604E-09 3.87332E-08 2.29984E-25
 -1       724 3.85172E-09 4.09638E-08 2.35842E-25
 -1       725 3.95301E-09 4.34747E-08 2.42044E-25
 -1       726 4.05880E-09 4.63018E-08 2.48522E-25
 -1       727 4.16604E-09 4.94881E-08 2.55088E-25
 -1       728 4.26933E-09 5.30857E-08 2.61412E-25
 -1       729 4.36087E-09 5.71590E-08 2.67017E-25
 -1       730 4.43104E-09 6.17871E-08 2.71314E-25
 -1       731 4.47025E-09 6.70676E-08 2.73715E-25
 -1       801-2.04269E-10 1.79508E-08-1.25075E-26
 -1       802 4.72848E-11 1.85321E-08 2.89526E-27
 -1       803 2.69995E-10 1.90218E-08 1.65319E-26
 -1       804 4.69168E-10 1.94493E-08 2.87273E-26
 -1       805 6.48076E-10 1.98367E-08 3.96819E-26
 -1       806 8.08846E-10 2.02013E-08 4.95259E-26
 -1       807 9.52895E-10 2.05572E-08 5.83461E-26
 -1       808 1.08118E-09 2.09163E-08 6.62013E-26
 -1       809 1.19440E-09 2.12890E-08 7.31332E-26
 -1       810 1.29306E-09 2.16854E-08 7.91747E-26
 -1       811 1.37769E-09 2.21148E-08 8.43564E-26
 -1       812 1.44883E-09 2.25867E-08 8.87123E-26
 -1       813 1.50716E-09 2.31107E-08 9.22839E-26
 -1       814 1.55354E-09 2.36969E-08 9.51240E-26
 -1       815 1.58907E-09 2.43558E-08 9.72993E-26
 -1       816 1.61509E-09 2.50988E-08 9.88924E-26
 -1       817 1.63324E-09 2.59378E-08 1.00004E-25
 -1       818 1.64548E-09 2.68859E-08 1.00753E-25
 -1       819 1.65405E-09 2.79574E-08 1.01278E-25
 -1       820 1.66149E-09 2.91678E-08 1.01733E-25
 -1       821 1.67057E-09 3.05344E-08 1.02289E-25
 -1       822 1.68423E-09 3.20764E-08 1.03126E-25
 -1       823 1.70547E-09 3.38155E-08 1.04426E-25
 -1       824 1.73717E-09 3.57764E-08 1.06368E-25
 -1       825 1.78197E-09 3.79877E-08 1.09111E-25
 -1       826 1.84204E-09 4.04829E-08 1.12789E-25
 -1       827 1.91897E-09 4.33015E-08 1.17499E-25
 -1       828 2.01376E-09 4.64911E-08 1.23303E-25
 -1       829 2.12713E-09 5.01086E-08 1.30245E-25
 -1       830 2.26028E-09 5.42222E-08 1.38398E-25
 -1       831 2.41623E-09 5.89128E-08 1.47947E-25
 -1       901-9.00949E-10 1.51957E-08-5.51654E-26
 -1       902-6.56701E-10 1.57086E-08-4.02100E-26
 -1       903-4.51076E-10 1.61419E-08-2.76195E-26
 -1       904-2.76387E-10 1.65206E-08-1.69233E-26
 -1       905-1.27963E-10 1.68636E-08-7.83522E-27
 -1       906-2.79789E-12 1.71858E-08-1.71316E-28
 -1       907 1.01142E-10 1.74993E-08 6.19294E-27
 -1       908 1.85298E-10 1.78145E-08 1.13459E-26
 -1       909 2.50762E-10 1.81407E-08 1.53542E-26
 -1       910 2.98436E-10 1.84864E-08 1.82733E-26
 -1       911 3.29159E-10 1.88599E-08 2.01545E-26
 -1       912 3.43804E-10 1.92694E-08 2.10513E-26
 -1       913 3.43358E-10 1.97230E-08 2.10239E-26
 -1       914 3.28985E-10 2.02294E-08 2.01438E-26
 -1       915 3.02088E-10 2.07977E-08 1.84969E-26
 -1       916 2.64354E-10 2.14376E-08 1.61865E-26
 -1       917 2.17792E-10 2.21593E-08 1.33355E-26
 -1       918 1.64769E-10 2.29742E-08 1.00889E-26
 -1       919 1.08033E-10 2.38947E-08 6.61491E-27
 -1       920 5.07259E-11 2.49343E-08 3.10596E-27
 -1       921-3.61325E-12 2.61082E-08-2.21240E-28
 -1       922-5.10566E-11 2.74334E-08-3.12621E-27
 -1       923-8.73044E-11 2.89292E-08-5.34567E-27
 -1       924-1.07706E-10 3.06178E-08-6.59488E-27
 -1       925-1.07269E-10 3.25248E-08-6.56811E-27
 -1       926-8.06289E-11 3.46800E-08-4.93694E-27
 -1       927-2.19450E-11 3.71188E-08-1.34370E-27
 -1       928 7.53435E-11 3.98826E-08 4.61331E-27
 -1       929 2.18969E-10 4.30207E-08 1.34076E-26
 -1       930 4.18565E-10 4.65907E-08 2.56289E-26
 -1       931 6.86708E-10 5.06595E-08 4.20474E-26
 -1      1001-1.51029E-09 1.25267E-08-9.24753E-26
 -1      1002-1.27248E-09 1.29640E-08-7.79144E-26
 -1      1003-1.08156E-09 1.33344E-08-6.62244E-26
 -1      1004-9.27804E-10 1.36585E-08-5.68097E-26
 -1      1005-8.05315E-10 1.39521E-08-4.93097E-26
 -1      1006-7.10318E-10 1.42274E-08-4.34930E-26
 -1      1007-6.40250E-10 1.44947E-08-3.92027E-26
 -1      1008-5.93275E-10 1.47628E-08-3.63264E-26
 -1      1009-5.67974E-10 1.50395E-08-3.47772E-26
 -1      1010-5.63155E-10 1.53320E-08-3.44822E-26
 -1      1011-5.77711E-10 1.56472E-08-3.53735E-26
 -1      1012-6.10515E-10 1.59919E-08-3.73820E-26
 -1      1013-6.60326E-10 1.63731E-08-4.04320E-26
 -1      1014-7.25724E-10 1.67980E-08-4.44363E-26
 -1      1015-8.05038E-10 1.72741E-08-4.92927E-26
 -1      1016-8.96292E-10 1.78095E-08-5.48802E-26
 -1      1017-9.97146E-10 1.84129E-08-6.10556E-26
 -1      1018-1.10485E-09 1.90938E-08-6.76506E-26
 -1      1019-1.21620E-09 1.98625E-08-7.44685E-26
 -1      1020-1.32748E-09 2.07306E-08-8.12818E-26
 -1      1021-1.43440E-09 2.17111E-08-8.78286E-26
 -1      1022-1.53208E-09 2.28184E-08-9.38100E-26
 -1      1023-1.61498E-09 2.40692E-08-9.88855E-26
 -1      1024-1.67677E-09 2.54824E-08-1.02669E-25
 -1      1025-1.71027E-09 2.70803E-08-1.04720E-25
 -1      1026-1.70727E-09 2.88883E-08-1.04537E-25
 -1      1027-1.65825E-09 3.09367E-08-1.01535E-25
 -1      1028-1.55202E-09 3.32604E-08-9.50307E-26
 -1      1029-1.37521E-09 3.59006E-08-8.42045E-26
 -1      1030-1.11157E-09 3.89050E-08-6.80619E-26
 -1      1031-7.41145E-10 4.23283E-08-4.53806E-26
 -1      1101-2.02227E-09 9.93104E-09-1.23824E-25
 -1      1102-1.78992E-09 1.02871E-08-1.09597E-25
 -1      1103-1.61121E-09 1.05893E-08-9.86546E-26
 -1      1104-1.47472E-09 1.08542E-08-9.02979E-26
 -1      1105-1.37357E-09 1.10940E-08-8.41040E-26
 -1      1106-1.30331E-09 1.13188E-08-7.98020E-26
 -1      1107-1.26095E-09 1.15368E-08-7.72081E-26
 -1      1108-1.24432E-09 1.17549E-08-7.61899E-26
 -1      1109-1.25175E-09 1.19795E-08-7.66450E-26
 -1      1110-1.28182E-09 1.22163E-08-7.84863E-26
 -1      1111-1.33322E-09 1.24711E-08-8.16336E-26
 -1      1112-1.40462E-09 1.27492E-08-8.60055E-26
 -1      1113-1.49458E-09 1.30563E-08-9.15137E-26
 -1      1114-1.60147E-09 1.33981E-08-9.80585E-26
 -1      1115-1.72340E-09 1.37807E-08-1.05524E-25
 -1      1116-1.85814E-09 1.42106E-08-1.13775E-25
 -1      1117-2.00309E-09 1.46946E-08-1.22650E-25
 -1      1118-2.15514E-09 1.52406E-08-1.31960E-25
 -1      1119-2.31069E-09 1.58568E-08-1.41484E-25
 -1      1120-2.46548E-09 1.65527E-08-1.50962E-25
 -1      1121-2.61459E-09 1.73387E-08-1.60092E-25
 -1      1122-2.75227E-09 1.82268E-08-1.68522E-25
 -1      1123-2.87183E-09 1.92305E-08-1.75843E-25
 -1      1124-2.96551E-09 2.03654E-08-1.81579E-25
 -1      1125-3.02423E-09 2.16496E-08-1.85175E-25
 -1      1126-3.03738E-09 2.31041E-08-1.85980E-25
 -1      1127-2.99240E-09 2.47532E-08-1.83226E-25
 -1      1128-2.87442E-09 2.66254E-08-1.76001E-25
 -1      1129-2.66562E-09 2.87535E-08-1.63217E-25
 -1      1130-2.34466E-09 3.11756E-08-1.43564E-25
 -1      1131-1.88582E-09 3.39349E-08-1.15469E-25
 -1      1201-2.42879E-09 7.39510E-09-1.48716E-25
 -1      1202-2.20081E-09 7.66564E-09-1.34756E-25
 -1      1203-2.03169E-09 7.89574E-09-1.24401E-25
 -1      1204-1.90875E-09 8.09756E-09-1.16873E-25
 -1      1205-1.82426E-09 8.28039E-09-1.11700E-25
 -1      1206-1.77329E-09 8.45164E-09-1.08579E-25
 -1      1207-1.75248E-09 8.61748E-09-1.07305E-25
 -1      1208-1.75943E-09 8.78320E-09-1.07730E-25
 -1      1209-1.79225E-09 8.95355E-09-1.09740E-25
 -1      1210-1.84937E-09 9.13295E-09-1.13238E-25
 -1      1211-1.92932E-09 9.32557E-09-1.18133E-25
 -1      1212-2.03061E-09 9.53557E-09-1.24335E-25
 -1      1213-2.15165E-09 9.76715E-09-1.31746E-25
 -1      1214-2.29065E-09 1.00246E-08-1.40257E-25
 -1      1215-2.44555E-09 1.03126E-08-1.49742E-25
 -1      1216-2.61394E-09 1.06358E-08-1.60052E-25
 -1      1217-2.79295E-09 1.09997E-08-1.71013E-25
 -1      1218-2.97924E-09 1.14099E-08-1.82420E-25
 -1      1219-3.16883E-09 1.18729E-08-1.94028E-25
 -1      1220-3.35705E-09 1.23957E-08-2.05553E-25
 -1      1221-3.53840E-09 1.29863E-08-2.16658E-25
 -1      1222-3.70643E-09 1.36538E-08-2.26946E-25
 -1      1223-3.85352E-09 1.44085E-08-2.35953E-25
 -1      1224-3.97072E-09 1.52624E-08-2.43128E-25
 -1      1225-4.04743E-09 1.62291E-08-2.47826E-25
 -1      1226-4.07114E-09 1.73247E-08-2.49277E-25
 -1      1227-4.02697E-09 1.85677E-08-2.46573E-25
 -1      1228-3.89719E-09 1.99794E-08-2.38626E-25
 -1      1229-3.66069E-09 2.15846E-08-2.24145E-25
 -1      1230-3.29224E-09 2.34117E-08-2.01585E-25
 -1      1231-2.76180E-09 2.54931E-08-1.69106E-25
 -1      1301-2.72360E-09 4.90457E-09-1.66767E-25
 -1      1302-2.49880E-09 5.08658E-09-1.53002E-25
 -1      1303-2.33661E-09 5.24157E-09-1.43071E-25
 -1      1304-2.22338E-09 5.37762E-09-1.36138E-25
 -1      1305-2.15084E-09 5.50089E-09-1.31697E-25
 -1      1306-2.11367E-09 5.61633E-09-1.29421E-25
 -1      1307-2.10827E-09 5.72803E-09-1.29090E-25
 -1      1308-2.13205E-09 5.83954E-09-1.30546E-25
 -1      1309-2.18299E-09 5.95404E-09-1.33665E-25
 -1      1310-2.25939E-09 6.07446E-09-1.38343E-25
 -1      1311-2.35967E-09 6.20362E-09-1.44483E-25
 -1      1312-2.48224E-09 6.34430E-09-1.51988E-25
 -1      1313-2.62540E-09 6.49928E-09-1.60754E-25
 -1      1314-2.78727E-09 6.67148E-09-1.70665E-25
 -1      1315-2.96563E-09 6.86392E-09-1.81587E-25
 -1      1316-3.15794E-09 7.07988E-09-1.93362E-25
 -1      1317-3.36117E-09 7.32286E-09-2.05805E-25
 -1      1318-3.57175E-09 7.59674E-09-2.18700E-25
 -1      1319-3.78547E-09 7.90579E-09-2.31786E-25
 -1      1320-3.99732E-09 8.25477E-09-2.44757E-25
 -1      1321-4.20139E-09 8.64906E-09-2.57252E-25
 -1      1322-4.39067E-09 9.09478E-09-2.68842E-25
 -1      1323-4.55688E-09 9.59890E-09-2.79019E-25
 -1      1324-4.69016E-09 1.01695E-08-2.87180E-25
 -1      1325-4.77885E-09 1.08157E-08-2.92610E-25
 -1      1326-4.80904E-09 1.15484E-08-2.94459E-25
 -1      1327-4.76421E-09 1.23799E-08-2.91714E-25
 -1      1328-4.62464E-09 1.33246E-08-2.83168E-25
 -1      1329-4.36688E-09 1.43990E-08-2.67386E-25
 -1      1330-3.96303E-09 1.56220E-08-2.42657E-25
 -1      1331-3.37998E-09 1.70153E-08-2.06957E-25
 -1      1401-2.90225E-09 2.44460E-09-1.77706E-25
 -1      1402-2.67940E-09 2.53609E-09-1.64060E-25
 -1      1403-2.52138E-09 2.61406E-09-1.54385E-25
 -1      1404-2.41401E-09 2.68253E-09-1.47810E-25
 -1      1405-2.34865E-09 2.74459E-09-1.43809E-25
 -1      1406-2.31978E-09 2.80268E-09-1.42041E-25
 -1      1407-2.32363E-09 2.85888E-09-1.42276E-25
 -1      1408-2.35750E-09 2.91494E-09-1.44351E-25
 -1      1409-2.41930E-09 2.97247E-09-1.48135E-25
 -1      1410-2.50725E-09 3.03294E-09-1.53520E-25
 -1      1411-2.61971E-09 3.09774E-09-1.60405E-25
 -1      1412-2.75502E-09 3.16828E-09-1.68691E-25
 -1      1413-2.91144E-09 3.24596E-09-1.78268E-25
 -1      1414-3.08698E-09 3.33222E-09-1.89017E-25
 -1      1415-3.27939E-09 3.42859E-09-2.00798E-25
 -1      1416-3.48601E-09 3.53670E-09-2.13449E-25
 -1      1417-3.70372E-09 3.65832E-09-2.26780E-25
 -1      1418-3.92882E-09 3.79538E-09-2.40563E-25
 -1      1419-4.15693E-09 3.95003E-09-2.54530E-25
 -1      1420-4.38286E-09 4.12466E-09-2.68364E-25
 -1      1421-4.60042E-09 4.32198E-09-2.81685E-25
 -1      1422-4.80228E-09 4.54507E-09-2.94045E-25
 -1      1423-4.97972E-09 4.79743E-09-3.04910E-25
 -1      1424-5.12237E-09 5.08311E-09-3.13645E-25
 -1      1425-5.21789E-09 5.40677E-09-3.19493E-25
 -1      1426-5.25156E-09 5.77380E-09-3.21555E-25
 -1      1427-5.20585E-09 6.19043E-09-3.18756E-25
 -1      1428-5.05987E-09 6.66384E-09-3.09817E-25
 -1      1429-4.78879E-09 7.20232E-09-2.93219E-25
 -1      1430-4.36311E-09 7.81530E-09-2.67155E-25
 -1      1431-3.74791E-09 8.51361E-09-2.29486E-25
 -1      1501-2.96210E-09 0.00000E+00-1.81370E-25
 -1      1502-2.73989E-09 0.00000E+00-1.67765E-25
 -1      1503-2.58327E-09 0.00000E+00-1.58174E-25
 -1      1504-2.47785E-09 0.00000E+00-1.51720E-25
 -1      1505-2.41490E-09 0.00000E+00-1.47865E-25
 -1      1506-2.38879E-09 0.00000E+00-1.46266E-25
 -1      1507-2.39573E-09 0.00000E+00-1.46691E-25
 -1      1508-2.43297E-09 0.00000E+00-1.48971E-25
 -1      1509-2.49838E-09 0.00000E+00-1.52977E-25
 -1      1510-2.59018E-09 0.00000E+00-1.58598E-25
 -1      1511-2.70669E-09 0.00000E+00-1.65732E-25
 -1      1512-2.84625E-09 0.00000E+00-1.74277E-25
 -1      1513-3.00708E-09 0.00000E+00-1.84124E-25
 -1      1514-3.18718E-09 0.00000E+00-1.95152E-25
 -1      1515-3.38426E-09 0.00000E+00-2.07219E-25
 -1      1516-3.59564E-09 0.00000E+00-2.20162E-25
 -1      1517-3.81817E-09 0.00000E+00-2.33788E-25
 -1      1518-4.04810E-09 0.00000E+00-2.47866E-25
 -1      1519-4.28100E-09 0.00000E+00-2.62127E-25
 -1      1520-4.51160E-09 0.00000E+00-2.76246E-25
 -1      1521-4.73363E-09 0.00000E+00-2.89842E-25
 -1      1522-4.93965E-09 0.00000E+00-3.02457E-25
 -1      1523-5.12081E-09 0.00000E+00-3.13549E-25
 -1      1524-5.26654E-09 0.00000E+00-3.22472E-25
 -1      1525-5.36427E-09 0.00000E+00-3.28456E-25
 -1      1526-5.39902E-09 0.00000E+00-3.30584E-25
 -1      1527-5.35294E-09 0.00000E+00-3.27762E-25
 -1      1528-5.20474E-09 0.00000E+00-3.18688E-25
 -1      1529-4.92913E-09 0.00000E+00-3.01812E-25
 -1      1530-4.49608E-09 0.00000E+00-2.75296E-25
 -1      1531-3.87007E-09 0.00000E+00-2.36965E-25
 -3
    1PSTEP                         8           4           1          
  100CL  104 4.00000E-01         496                     0    4           1
 -4  STRESS      6    1
 -5  SXX         1    4    1    1
 -5  SYY         1    4    2    2
 -5  SZZ         1    4    3    3
 -5  SXY         1    4    1    2
 -5  SYZ         1    4    2    3
 -5  SZX         1    4    3    1
 -1         1 1.43009E+04-1.85274E+05 1.02769E+05-1.90604E+03-2.71990E-09-1.80040E-10
 -1         2 1.48880E+04-1.89680E+05 8.52633E+04-1.60001E+03 3.60346E-10-9.52017E-11
 -1         3 2.56542E+04-1.88705E+05 7.83428E+04-2.78505E+03 9.05970E-10-1.94265E-11
 -1         4 3.45619E+04-1.88136E+05 7.42282E+04-4.04916E+03-7.15111E-10 2.79824E-11
 -1         5 4.29288E+04-1.87577E+05 7.22404E+04-5.27448E+03 2.76618E-10-8.67281E-12
 -1         6 5.13075E+04-1.86864E+05 7.19081E+04-6.38937E+03-9.08408E-10 1.76502E-10
 -1         7 5.99184E+04-1.85954E+05 7.28846E+04-7.36733E+03 2.01400E-10-8.68691E-11
 -1         8 6.88406E+04-1.84851E+05 7.49133E+04-8.20477E+03-1.02954E-09-3.40089E-10
 -1         9 7.80876E+04-1.83570E+05 7.78002E+04-8.90433E+03 3.58250E-10-2.39052E-10
 -1        10 8.76382E+04-1.82134E+05 8.13941E+04-9.46735E+03 1.24362E-10-5.59033E-11
 -1        11 9.74490E+04-1.80563E+05 8.55725E+04-9.89066E+03-2.04219E-10 3.49618E-10
 -1        12 1.07456E+05-1.78879E+05 9.02301E+04-1.01652E+04-1.31135E-10 4.54921E-11
 -1        13 1.17575E+05-1.77104E+05 9.52703E+04-1.02753E+04 4.72649E-10 1.91464E-10
 -1        14 1.27695E+05-1.75264E+05 1.00598E+05-1.01986E+04-1.56882E-09-1.89477E-10
 -1        15 1.37671E+05-1.73391E+05 1.06113E+05-9.90562E+03 1.01132E-09 2.28084E-10
 -1        16 1.47323E+05-1.71525E+05 1.11705E+05-9.35963E+03 1.69502E-10-8.38232E-11
 -1        17 1.56418E+05-1.69717E+05 1.17245E+05-8.51641E+03 4.06932E-10 2.66180E-10
 -1        18 1.64668E+05-1.68033E+05 1.22583E+05-7.32448E+03-6.93370E-10-2.80418E-10
 -1        19 1.71713E+05-1.66559E+05 1.27537E+05-5.72578E+03 1.99852E-10 1.71416E-10
 -1        20 1.77111E+05-1.65402E+05 1.31891E+05-3.65774E+03-8.37869E-10-1.61452E-10
 -1        21 1.80327E+05-1.64692E+05 1.35386E+05-1.05736E+03-9.30606E-11-2.12145E-10
 -1        22 1.80719E+05-1.64584E+05 1.37716E+05 2.13016E+03-9.40023E-11 1.28825E-10
 -1        23 1.77545E+05-1.65250E+05 1.38530E+05 5.93564E+03 6.44286E-10-1.31676E-10
 -1        24 1.69976E+05-1.66854E+05 1.37442E+05 1.03359E+04-1.88793E-09-3.13773E-10
 -1        25 1.57153E+05-1.69497E+05 1.34065E+05 1.51979E+04 8.37211E-10 3.76296E-10
 -1        26 1.38330E+05-1.73105E+05 1.28085E+05 2.01742E+04 5.38519E-10 1.30223E-10
 -1        27 1.13168E+05-1.77174E+05 1.19438E+05 2.45002E+04-2.00862E-10 1.53886E-10
 -1        28 8.23578E+04-1.80248E+05 1.08657E+05 2.66036E+04 9.76607E-10 1.46026E-10
 -1        29 4.89028E+04-1.78850E+05 9.76011E+04 2.33881E+04-5.27212E-10-3.78944E-10
 -1        30 2.16432E+04-1.65150E+05 9.12649E+04 1.10469E+04 7.75793E-10 7.52610E-11
 -1        31 1.93889E+04-1.33565E+05 9.71732E+04 2.75737E+03-6.34886E-10 4.36797E-10
 -1       101 5.69686E+03-1.98401E+05 4.52468E+04-5.32936E+02-1.15434E-11-1.90175E-10
 -1       102 6.49357E+03-1.98954E+05 3.81539E+04-2.16910E+03 6.08006E-10 1.02795E-10
 -1       103 1.08648E+04-1.98527E+05 3.47495E+04-4.77163E+03-9.15272E-10-1.33001E-11
 -1       104 1.45587E+04-1.98655E+05 3.25849E+04-7.05787E+03 7.23412E-10-3.49682E-11
 -1       105 1.76760E+04-1.99135E+05 3.11818E+04-9.04183E+03-6.79094E-10-7.16254E-11
 -1       106 2.03503E+04-1.99850E+05 3.02742E+04-1.07491E+04 3.07661E-10 5.31449E-11
 -1       107 2.27000E+04-2.00728E+05 2.97050E+04-1.22036E+04-4.22298E-10-7.47801E-11
 -1       108 2.48061E+04-2.01734E+05 2.93729E+04-1.34206E+04 3.06695E-11 1.85782E-11
 -1       109 2.67141E+04-2.02852E+05 2.92063E+04-1.44072E+04 5.05763E-10 2.71642E-11
 -1       110 2.84404E+04-2.04080E+05 2.91498E+04-1.51628E+04-2.84293E-10-1.09338E-11
 -1       111 2.99791E+04-2.05421E+05 2.91574E+04-1.56778E+04-3.48387E-10-1.47960E-10
 -1       112 3.13072E+04-2.06885E+05 2.91883E+04-1.59342E+04-6.99267E-11-1.40316E-10
 -1       113 3.23890E+04-2.08483E+05 2.92050E+04-1.59053E+04 1.86268E-10-6.42282E-11
 -1       114 3.31790E+04-2.10226E+05 2.91720E+04-1.55559E+04 3.83082E-10-3.57756E-11
 -1       115 3.36252E+04-2.12125E+05 2.90556E+04-1.48419E+04-5.99584E-10-2.38637E-10
 -1       116 3.36716E+04-2.14188E+05 2.88238E+04-1.37111E+04-5.15439E-11 4.22046E-11
 -1       117 3.32626E+04-2.16418E+05 2.84475E+04-1.21034E+04 6.32646E-11-7.85363E-11
 -1       118 3.23470E+04-2.18812E+05 2.79023E+04-9.95171E+03-9.39462E-11-9.66850E-11
 -1       119 3.08849E+04-2.21356E+05 2.71703E+04-7.18446E+03 4.55672E-10 4.80647E-11
 -1       120 2.88561E+04-2.24018E+05 2.62445E+04-3.72864E+03-1.55411E-10-1.08713E-10
 -1       121 2.62714E+04-2.26742E+05 2.51336E+04 4.83964E+02 2.51505E-10 8.60853E-11
 -1       122 2.31869E+04-2.29433E+05 2.38685E+04 5.50676E+03-3.28673E-10-1.42930E-10
 -1       123 1.97197E+04-2.31940E+05 2.25114E+04 1.13622E+04 1.44851E-10 1.34401E-10
 -1       124 1.60630E+04-2.34024E+05 2.11656E+04 1.80154E+04 5.13603E-10-9.20577E-11
 -1       125 1.24924E+04-2.35313E+05 1.99863E+04 2.53326E+04-1.56928E-10-1.69788E-10
 -1       126 9.34498E+03-2.35222E+05 1.91874E+04 3.30133E+04-7.75565E-12 3.70916E-11
 -1       127 6.92894E+03-2.32823E+05 1.90383E+04 4.04830E+04 2.46451E-10-1.28113E-10
 -1       128 5.28146E+03-2.26600E+05 1.98328E+04 4.67032E+04-4.89404E-10-1.52478E-10
 -1       129 3.64930E+03-2.13977E+05 2.18125E+04 4.97688E+04-2.75485E-10-6.46963E-12
 -1       130 8.13099E+02-1.91048E+05 2.53586E+04 4.37738E+04 9.02191E-11-1.23233E-10
 -1       131 6.47550E+03-1.37093E+05 3.46463E+04 3.24788E+04 2.55283E-10-1.47278E-11
 -1       201 2.37347E+03-1.92180E+05 3.03337E+04-1.13159E+03-2.33269E-10 1.16746E-11
 -1       202 4.65728E+03-1.90321E+05 2.64699E+04-3.34506E+03-1.76135E-10-6.51565E-11
 -1       203 8.58828E+03-1.89785E+05 2.43158E+04-6.50238E+03 8.68281E-11-1.85560E-11
 -1       204 1.12091E+04-1.89918E+05 2.28771E+04-9.23961E+03-3.33526E-10 2.28756E-11
 -1       205 1.31638E+04-1.90358E+05 2.19029E+04-1.15638E+04-2.91866E-11-7.95261E-11
 -1       206 1.47183E+04-1.90939E+05 2.12419E+04-1.35616E+04-1.57491E-10-3.76390E-11
 -1       207 1.60040E+04-1.91586E+05 2.07970E+04-1.52716E+04 3.75653E-10 7.33294E-11
 -1       208 1.70962E+04-1.92274E+05 2.05041E+04-1.67114E+04-5.50813E-11 1.77343E-11
 -1       209 1.80391E+04-1.93002E+05 2.03182E+04-1.78847E+04-1.76286E-10 1.08190E-10
 -1       210 1.88566E+04-1.93783E+05 2.02067E+04-1.87849E+04 7.98517E-11 2.33564E-11
 -1       211 1.95583E+04-1.94638E+05 2.01441E+04-1.93962E+04-5.50184E-11 3.99832E-11
 -1       212 2.01437E+04-1.95593E+05 2.01097E+04-1.96944E+04 4.33025E-11-7.17628E-11
 -1       213 2.06052E+04-1.96675E+05 2.00858E+04-1.96465E+04-1.25148E-11 1.14308E-10
 -1       214 2.09297E+04-1.97915E+05 2.00565E+04-1.92110E+04-1.24185E-10-6.41250E-11
 -1       215 2.11009E+04-1.99347E+05 2.00070E+04-1.83382E+04 5.08320E-11 2.64112E-11
 -1       216 2.11007E+04-2.01005E+05 1.99236E+04-1.69705E+04-2.54277E-10-7.64836E-11
 -1       217 2.09110E+04-2.02924E+05 1.97933E+04-1.50434E+04 1.16063E-10 1.34452E-10
 -1       218 2.05155E+04-2.05136E+05 1.96044E+04-1.24874E+04-2.71112E-10-4.12665E-12
 -1       219 1.99019E+04-2.07672E+05 1.93465E+04-9.23045E+03 5.27539E-11-8.41995E-11
 -1       220 1.90643E+04-2.10552E+05 1.90114E+04-5.20253E+03 9.94985E-11 5.93366E-11
 -1       221 1.80054E+04-2.13777E+05 1.85948E+04-3.42641E+02 2.99089E-10 5.33132E-11
 -1       222 1.67386E+04-2.17316E+05 1.80973E+04 5.39100E+03-2.89912E-10-2.30337E-11
 -1       223 1.52873E+04-2.21077E+05 1.75276E+04 1.20059E+04 1.33749E-10-2.01656E-12
 -1       224 1.36797E+04-2.24867E+05 1.69062E+04 1.94537E+04 6.14418E-10 1.78824E-10
 -1       225 1.19318E+04-2.28315E+05 1.62699E+04 2.76009E+04 1.01052E-10-3.00054E-11
 -1       226 1.00057E+04-2.30742E+05 1.56798E+04 3.61910E+04 3.75726E-11-4.02018E-11
 -1       227 7.71386E+03-2.30926E+05 1.52314E+04 4.48022E+04-9.08018E-12 1.01190E-10
 -1       228 4.49097E+03-2.26646E+05 1.50690E+04 5.28168E+04 3.01778E-11-3.41498E-11
 -1       229-1.18660E+03-2.13792E+05 1.53990E+04 5.94084E+04 2.03840E-10 8.31411E-11
 -1       230-1.53910E+04-1.83025E+05 1.64231E+04 6.41959E+04-8.71324E-11 5.12859E-11
 -1       231-2.20270E+04-1.25762E+05 2.01885E+04 6.09429E+04 3.32901E-11-1.61462E-10
 -1       301 1.73686E+03-1.87332E+05 2.21629E+04-2.20923E+03 6.54052E-11 6.50145E-11
 -1       302 2.94810E+03-1.85835E+05 1.93853E+04-3.94939E+03-3.46889E-11 9.38226E-11
 -1       303 5.32019E+03-1.85672E+05 1.76627E+04-7.25660E+03-6.93670E-11-5.23980E-11
 -1       304 7.26456E+03-1.86061E+05 1.65235E+04-9.88308E+03-3.11794E-10-4.38887E-11
 -1       305 8.72182E+03-1.86730E+05 1.57361E+04-1.21296E+04 5.67635E-10 1.85598E-11
 -1       306 9.82683E+03-1.87540E+05 1.51776E+04-1.40616E+04-4.54585E-10-7.48635E-12
 -1       307 1.06771E+04-1.88429E+05 1.47720E+04-1.57175E+04 6.49760E-11-4.28300E-11
 -1       308 1.13359E+04-1.89376E+05 1.44691E+04-1.71120E+04 9.22323E-11-5.85949E-11
 -1       309 1.18437E+04-1.90384E+05 1.42343E+04-1.82464E+04-2.40712E-10-3.58192E-11
 -1       310 1.22259E+04-1.91470E+05 1.40424E+04-1.91117E+04-4.85776E-11-8.28211E-11
 -1       311 1.24971E+04-1.92659E+05 1.38741E+04-1.96909E+04 2.62207E-10 7.78228E-12
 -1       312 1.26641E+04-1.93980E+05 1.37138E+04-1.99590E+04 1.72037E-10 8.02342E-11
 -1       313 1.27286E+04-1.95467E+05 1.35484E+04-1.98839E+04 1.23326E-10-1.43721E-11
 -1       314 1.26883E+04-1.97158E+05 1.33665E+04-1.94265E+04-1.96617E-10 7.68490E-13
 -1       315 1.25388E+04-1.99090E+05 1.31577E+04-1.85407E+04-5.38859E-11 2.08467E-11
 -1       316 1.22748E+04-2.01304E+05 1.29125E+04-1.71741E+04 3.04084E-10 6.82006E-11
 -1       317 1.18910E+04-2.03837E+05 1.26225E+04-1.52688E+04-2.88904E-10-1.07829E-10
 -1       318 1.13833E+04-2.06726E+05 1.22801E+04-1.27630E+04 1.97375E-10-1.08902E-11
 -1       319 1.07494E+04-2.10003E+05 1.18792E+04-9.59326E+03-1.44629E-10-9.95016E-12
 -1       320 9.98864E+03-2.13686E+05 1.14155E+04-5.69778E+03 3.16610E-10 4.18577E-11
 -1       321 9.10148E+03-2.17772E+05 1.08874E+04-1.02138E+03 1.92642E-11 1.44861E-11
 -1       322 8.08582E+03-2.22224E+05 1.02967E+04 4.47780E+03 2.32195E-10 1.12574E-10
 -1       323 6.92986E+03-2.26944E+05 9.65009E+03 1.08198E+04-5.79027E-10-1.55331E-10
 -1       324 5.59712E+03-2.31740E+05 8.96039E+03 1.79924E+04-1.87505E-10-1.15799E-11
 -1       325 3.99737E+03-2.36263E+05 8.24836E+03 2.59415E+04-3.12671E-11 4.23581E-11
 -1       326 1.93150E+03-2.39914E+05 7.54410E+03 3.45662E+04 3.44769E-10 2.54952E-11
 -1       327-1.01358E+03-2.41682E+05 6.88765E+03 4.37368E+04-1.42727E-10 1.54182E-11
 -1       328-5.66635E+03-2.39881E+05 6.32708E+03 5.33714E+04 7.32683E-10 5.46880E-11
 -1       329-1.37209E+04-2.31628E+05 5.90944E+03 6.37307E+04 1.32255E-10 7.58034E-12
 -1       330-2.77502E+04-2.11902E+05 5.74064E+03 7.63224E+04 3.09349E-11-3.36840E-11
 -1       331-3.60996E+04-1.93050E+05 5.53306E+03 8.38480E+04 5.72204E-10 1.48228E-10
 -1       401 1.02324E+03-1.81181E+05 1.37398E+04-2.28767E+03 9.29694E-11-4.26296E-11
 -1       402 1.65321E+03-1.81217E+05 1.19624E+04-4.20903E+03-5.41464E-10-5.76452E-11
 -1       403 2.95283E+03-1.81479E+05 1.08681E+04-7.58759E+03 1.97152E-10 2.51091E-11
 -1       404 3.95247E+03-1.82169E+05 1.00888E+04-1.02067E+04-1.46653E-11-5.64796E-12
 -1       405 4.73457E+03-1.83081E+05 9.52325E+03-1.23690E+04 5.84166E-11-8.85497E-11
 -1       406 5.30142E+03-1.84122E+05 9.09357E+03-1.42093E+04-3.01444E-11 1.90946E-11
 -1       407 5.68413E+03-1.85250E+05 8.75022E+03-1.57783E+04-1.42194E-10-5.41357E-11
 -1       408 5.91356E+03-1.86451E+05 8.46002E+03-1.70957E+04 1.25032E-10 4.78874E-11
 -1       409 6.01474E+03-1.87733E+05 8.19972E+03-1.81640E+04-1.45949E-10-5.44494E-11
 -1       410 6.00648E+03-1.89118E+05 7.95228E+03-1.89745E+04 1.73691E-11-3.03065E-11
 -1       411 5.90233E+03-1.90633E+05 7.70462E+03-1.95101E+04-1.22555E-10-3.69689E-11
 -1       412 5.71171E+03-1.92313E+05 7.44625E+03-1.97467E+04 3.09074E-11 2.85233E-11
 -1       413 5.44101E+03-1.94196E+05 7.16835E+03-1.96537E+04-4.71242E-10-6.88756E-11
 -1       414 5.09456E+03-1.96324E+05 6.86330E+03-1.91945E+04 9.30143E-11-1.10462E-11
 -1       415 4.67543E+03-1.98738E+05 6.52435E+03-1.83267E+04 1.52696E-10 5.61334E-11
 -1       416 4.18614E+03-2.01482E+05 6.14549E+03-1.70025E+04-9.30137E-11-7.99281E-11
 -1       417 3.62908E+03-2.04598E+05 5.72143E+03-1.51692E+04 5.17082E-11 7.27665E-11
 -1       418 3.00657E+03-2.08127E+05 5.24770E+03-1.27705E+04-2.99949E-10-7.79203E-11
 -1       419 2.32035E+03-2.12100E+05 4.72083E+03-9.74768E+03 1.12522E-10 7.27991E-11
 -1       420 1.57007E+03-2.16538E+05 4.13861E+03-6.04150E+03 2.01424E-10 3.05826E-11
 -1       421 7.50160E+02-2.21439E+05 3.50039E+03-1.59477E+03-5.37578E-11-2.64087E-11
 -1       422-1.55961E+02-2.26768E+05 2.80744E+03 3.64509E+03 4.18326E-11 3.98055E-12
 -1       423-1.18599E+03-2.32437E+05 2.06323E+03 9.72361E+03 3.12908E-11 7.73746E-11
 -1       424-2.41587E+03-2.38277E+05 1.27361E+03 1.66789E+04-5.99149E-11-3.63286E-11
 -1       425-3.98809E+03-2.43994E+05 4.46525E+02 2.45466E+04 7.99469E-11 6.61145E-11
 -1       426-6.15726E+03-2.49110E+05-4.09015E+02 3.33783E+04-3.83355E-10-4.33824E-11
 -1       427-9.36097E+03-2.52877E+05-1.28544E+03 4.32892E+04 4.78430E-10-4.43065E-11
 -1       428-1.43227E+04-2.54161E+05-2.18152E+03 5.45754E+04-3.46927E-10 4.11147E-11
 -1       429-2.21183E+04-2.51325E+05-3.10660E+03 6.79729E+04 1.50136E-10-2.40151E-11
 -1       430-3.41616E+04-2.42407E+05-4.10444E+03 8.52163E+04 4.28247E-10-6.78640E-11
 -1       431-4.20779E+04-2.41485E+05-5.88099E+03 9.61610E+04-4.62843E-10 4.49068E-11
 -1       501 4.05333E+02-1.75117E+05 5.29696E+03-2.23582E+03-3.76725E-10-1.89673E-10
 -1       502 5.21312E+02-1.76224E+05 4.54762E+03-4.13965E+03 9.08950E-11 7.05981E-11
 -1       503 8.77625E+02-1.77198E+05 4.06246E+03-7.52782E+03 2.27880E-11 3.27173E-11
 -1       504 1.08247E+03-1.78270E+05 3.68444E+03-1.01339E+04 1.83410E-10 2.81075E-12
 -1       505 1.18596E+03-1.79465E+05 3.36952E+03-1.22384E+04-2.67857E-10-4.00804E-11
 -1       506 1.19283E+03-1.80752E+05 3.09201E+03-1.39919E+04 1.01802E-10 5.27392E-11
 -1       507 1.09774E+03-1.82119E+05 2.83190E+03-1.54680E+04-1.46750E-10-9.72427E-12
 -1       508 9.03907E+02-1.83567E+05 2.57462E+03-1.66972E+04 1.94690E-10-2.50779E-11
 -1       509 6.18932E+02-1.85114E+05 2.30930E+03-1.76876E+04 1.15901E-10 4.06186E-11
 -1       510 2.51862E+02-1.86785E+05 2.02759E+03-1.84336E+04 8.30731E-12 2.91434E-11
 -1       511-1.88251E+02-1.88613E+05 1.72280E+03-1.89206E+04-1.34058E-10-5.10612E-11
 -1       512-6.92883E+02-1.90635E+05 1.38940E+03-1.91263E+04 1.33491E-10-1.55534E-11
 -1       513-1.25408E+03-1.92894E+05 1.02264E+03-1.90226E+04 1.57030E-10 5.97824E-11
 -1       514-1.86432E+03-1.95434E+05 6.18365E+02-1.85759E+04-1.01352E-10-4.56410E-11
 -1       515-2.51632E+03-1.98301E+05 1.72884E+02-1.77470E+04-3.95696E-11 1.90910E-11
 -1       516-3.20295E+03-2.01543E+05-3.17059E+02-1.64920E+04-7.76916E-11-2.85256E-11
 -1       517-3.91736E+03-2.05206E+05-8.54256E+02-1.47622E+04 2.44432E-10 1.81338E-11
 -1       518-4.65360E+03-2.09332E+05-1.44100E+03-1.25047E+04-1.94659E-10-5.55800E-11
 -1       519-5.40782E+03-2.13959E+05-2.07899E+03-9.66254E+03 2.47132E-10 1.36464E-11
 -1       520-6.18056E+03-2.19109E+05-2.76925E+03-6.17538E+03 2.75199E-10-1.28779E-11
 -1       521-6.98061E+03-2.24791E+05-3.51206E+03-1.97955E+03-1.56668E-10 1.50803E-11
 -1       522-7.83120E+03-2.30980E+05-4.30702E+03 2.99261E+03-1.79215E-10-1.26969E-13
 -1       523-8.77957E+03-2.37612E+05-5.15318E+03 8.81510E+03 3.06668E-11 1.83284E-11
 -1       524-9.91135E+03-2.44559E+05-6.04952E+03 1.55743E+04 1.78078E-10-3.03031E-11
 -1       525-1.13713E+04-2.51605E+05-6.99591E+03 2.33819E+04 2.83489E-10 1.10795E-11
 -1       526-1.33916E+04-2.58416E+05-7.99473E+03 3.24014E+04 4.86631E-10 2.60556E-11
 -1       527-1.63253E+04-2.64504E+05-9.05370E+03 4.28990E+04-6.41978E-10-2.01131E-11
 -1       528-2.06735E+04-2.69212E+05-1.01899E+04 5.53356E+04 3.21825E-10 7.11655E-11
 -1       529-2.70789E+04-2.71758E+05-1.14374E+04 7.05242E+04 3.62886E-10 7.73931E-12
 -1       530-3.62078E+04-2.71435E+05-1.28572E+04 8.98410E+04-6.07157E-10 1.28451E-12
 -1       531-4.27242E+04-2.81116E+05-1.52784E+04 1.02345E+05-5.23958E-11 9.59623E-11
 -1       601-1.94383E+02-1.69323E+05-2.93002E+03-2.10744E+03-2.62973E-10-4.74175E-11
 -1       602-5.20589E+02-1.71240E+05-2.68489E+03-3.93198E+03 4.04825E-10 1.94824E-11
 -1       603-1.00416E+03-1.72875E+05-2.57513E+03-7.19376E+03-4.03233E-10-9.48992E-12
 -1       604-1.49627E+03-1.74403E+05-2.55707E+03-9.72839E+03 7.96672E-11 7.89077E-11
 -1       605-1.99348E+03-1.75923E+05-2.61033E+03-1.17590E+04 1.44373E-10 4.56262E-11
 -1       606-2.50917E+03-1.77477E+05-2.72166E+03-1.34262E+04 1.03514E-10-3.91857E-11
 -1       607-3.05942E+03-1.79089E+05-2.88339E+03-1.48096E+04 2.14928E-10 5.43598E-11
 -1       608-3.65586E+03-1.80780E+05-3.09184E+03-1.59486E+04-4.33725E-10-9.71289E-11
 -1       609-4.30320E+03-1.82580E+05-3.34550E+03-1.68581E+04 2.54568E-11 1.81472E-11
 -1       610-5.00101E+03-1.84522E+05-3.64399E+03-1.75373E+04-1.16295E-10 2.16435E-11
 -1       611-5.74538E+03-1.86642E+05-3.98763E+03-1.79751E+04 1.32709E-10 4.54701E-11
 -1       612-6.53019E+03-1.88984E+05-4.37710E+03-1.81524E+04 7.03975E-11 4.45791E-11
 -1       613-7.34780E+03-1.91592E+05-4.81331E+03-1.80443E+04-1.54468E-10-1.54709E-11
 -1       614-8.18954E+03-1.94515E+05-5.29725E+03-1.76201E+04 4.00189E-11 2.70100E-11
 -1       615-9.04597E+03-1.97803E+05-5.82992E+03-1.68442E+04 1.47785E-10-1.56015E-11
 -1       616-9.90728E+03-2.01505E+05-6.41226E+03-1.56760E+04 4.17296E-11 3.43255E-11
 -1       617-1.07637E+04-2.05674E+05-7.04505E+03-1.40697E+04-1.59250E-11 3.30370E-12
 -1       618-1.16067E+04-2.10355E+05-7.72892E+03-1.19746E+04 4.31499E-11 5.76256E-11
 -1       619-1.24300E+04-2.15592E+05-8.46422E+03-9.33422E+03-1.26195E-10-5.96939E-11
 -1       620-1.32323E+04-2.21418E+05-9.25111E+03-6.08565E+03-2.47130E-10-8.42015E-11
 -1       621-1.40207E+04-2.27852E+05-1.00896E+04-2.15799E+03 5.70523E-11 3.70841E-11
 -1       622-1.48161E+04-2.34891E+05-1.09796E+04 2.53054E+03-7.02172E-11-5.00759E-11
 -1       623-1.56601E+04-2.42501E+05-1.19216E+04 8.07771E+03 1.24413E-10 5.85507E-11
 -1       624-1.66252E+04-2.50608E+05-1.29169E+04 1.46062E+04 2.95434E-11-5.91737E-11
 -1       625-1.78270E+04-2.59081E+05-1.39689E+04 2.22787E+04-2.12140E-10-2.30233E-11
 -1       626-1.94372E+04-2.67725E+05-1.50842E+04 3.13228E+04 2.42366E-10-3.29515E-11
 -1       627-2.16941E+04-2.76275E+05-1.62753E+04 4.20702E+04-2.14566E-10-1.20131E-11
 -1       628-2.49006E+04-2.84417E+05-1.75631E+04 5.50157E+04-1.02246E-10-2.60217E-11
 -1       629-2.93919E+04-2.91851E+05-1.89814E+04 7.08924E+04-6.65161E-10-2.68920E-11
 -1       630-3.54516E+04-2.98448E+05-2.05830E+04 9.07514E+04 3.28416E-11 6.84101E-11
 -1       631-4.03942E+04-3.15117E+05-2.32290E+04 1.03615E+05-8.66543E-10-7.93528E-11
 -1       701-7.50442E+02-1.63899E+05-1.07492E+04-1.93820E+03-9.74062E-11 2.89202E-11
 -1       702-1.47437E+03-1.66463E+05-9.57358E+03-3.63468E+03-5.87245E-10-3.67507E-11
 -1       703-2.71601E+03-1.68674E+05-8.90129E+03-6.68124E+03-1.01363E-10-3.87082E-11
 -1       704-3.82256E+03-1.70647E+05-8.50352E+03-9.07277E+03-9.20166E-11-7.01388E-11
 -1       705-4.84683E+03-1.72510E+05-8.30030E+03-1.09910E+04-2.44020E-10-2.98232E-11
 -1       706-5.82589E+03-1.74344E+05-8.24216E+03-1.25553E+04 3.37990E-10 6.19936E-11
 -1       707-6.78770E+03-1.76204E+05-8.29777E+03-1.38401E+04-6.81500E-11-1.24833E-11
 -1       708-7.75198E+03-1.78134E+05-8.44698E+03-1.48871E+04 1.29203E-10-2.47469E-11
 -1       709-8.73079E+03-1.80176E+05-8.67676E+03-1.57151E+04-1.28434E-10-1.73161E-11
 -1       710-9.72956E+03-1.82370E+05-8.97849E+03-1.63279E+04 8.51749E-11 4.08200E-11
 -1       711-1.07485E+04-1.84761E+05-9.34641E+03-1.67182E+04-2.97296E-11-3.94339E-11
 -1       712-1.17840E+04-1.87396E+05-9.77661E+03-1.68705E+04-1.82136E-10-6.70774E-11
 -1       713-1.28293E+04-1.90324E+05-1.02664E+04-1.67633E+04 3.41028E-11-2.50099E-11
 -1       714-1.38756E+04-1.93597E+05-1.08138E+04-1.63695E+04-3.05797E-10-5.01368E-11
 -1       715-1.49123E+04-1.97267E+05-1.14176E+04-1.56566E+04 2.35681E-10 6.06014E-11
 -1       716-1.59278E+04-2.01391E+05-1.20765E+04-1.45872E+04-2.59848E-12-7.77112E-12
 -1       717-1.69100E+04-2.06023E+05-1.27898E+04-1.31184E+04-1.09147E-10-6.82263E-11
 -1       718-1.78474E+04-2.11217E+05-1.35565E+04-1.12013E+04-1.08802E-10-3.47987E-11
 -1       719-1.87303E+04-2.17023E+05-1.43759E+04-8.77973E+03 1.20994E-10 2.12308E-11
 -1       720-1.95531E+04-2.23486E+05-1.52473E+04-5.78898E+03 2.02065E-10 5.59123E-12
 -1       721-2.03165E+04-2.30641E+05-1.61702E+04-2.15285E+03 3.58095E-10-1.50444E-12
 -1       722-2.10315E+04-2.38511E+05-1.71443E+04 2.22014E+03-8.09796E-11 1.38805E-11
 -1       723-2.17239E+04-2.47099E+05-1.81702E+04 7.44297E+03 7.77628E-11-2.62927E-11
 -1       724-2.24400E+04-2.56384E+05-1.92496E+04 1.36593E+04-6.24872E-11-6.38595E-12
 -1       725-2.32516E+04-2.66318E+05-2.03862E+04 2.10572E+04-2.38135E-10-4.31081E-12
 -1       726-2.42603E+04-2.76827E+05-2.15867E+04 2.98888E+04 5.79914E-11 1.56317E-11
 -1       727-2.55965E+04-2.87817E+05-2.28622E+04 4.04965E+04 4.38616E-11 5.89640E-11
 -1       728-2.74077E+04-2.99200E+05-2.42299E+04 5.33456E+04 2.82709E-10-7.23342E-11
 -1       729-2.98296E+04-3.10949E+05-2.57152E+04 6.90580E+04 4.09493E-11 9.53267E-11
 -1       730-3.29310E+04-3.23195E+05-2.73543E+04 8.84316E+04 5.88475E-11-1.57851E-11
 -1       731-3.63280E+04-3.44890E+05-3.00183E+04 1.00962E+05-5.24395E-10 6.38894E-11
 -1       801-1.25617E+03-1.58932E+05-1.80010E+04-1.73953E+03 8.10765E-10 2.86512E-11
 -1       802-2.33409E+03-1.62022E+05-1.59780E+04-3.27584E+03-9.34905E-10-2.28997E-10
 -1       803-4.25393E+03-1.64727E+05-1.47877E+04-6.04221E+03-7.53224E-12 7.37598E-11
 -1       804-5.90229E+03-1.67104E+05-1.40368E+04-8.23299E+03 7.44155E-11-1.81110E-11
 -1       805-7.38587E+03-1.69296E+05-1.35912E+04-9.99678E+03 2.46714E-10 8.59222E-11
 -1       806-8.76839E+03-1.71406E+05-1.33689E+04-1.14329E+04-2.52687E-10-7.80947E-11
 -1       807-1.00909E+04-1.73510E+05-1.33176E+04-1.26059E+04-5.09930E-11-1.97847E-12
 -1       808-1.13805E+04-1.75670E+05-1.34027E+04-1.35547E+04 1.19365E-10 2.14383E-11
 -1       809-1.26541E+04-1.77939E+05-1.36010E+04-1.42993E+04 2.62452E-10 7.60230E-11
 -1       810-1.39210E+04-1.80367E+05-1.38963E+04-1.48458E+04 1.18434E-10 2.37426E-12
 -1       811-1.51842E+04-1.83005E+05-1.42774E+04-1.51904E+04 2.98790E-11-5.73897E-12
 -1       812-1.64418E+04-1.85906E+05-1.47362E+04-1.53209E+04 2.50367E-10 9.15867E-11
 -1       813-1.76881E+04-1.89121E+05-1.52667E+04-1.52194E+04-4.60656E-11-3.44195E-11
 -1       814-1.89142E+04-1.92708E+05-1.58643E+04-1.48620E+04-4.66690E-11-7.13408E-12
 -1       815-2.01087E+04-1.96723E+05-1.65255E+04-1.42199E+04 5.34716E-11 5.50324E-11
 -1       816-2.12585E+04-2.01226E+05-1.72475E+04-1.32590E+04 1.03780E-10 4.66573E-11
 -1       817-2.23489E+04-2.06277E+05-1.80278E+04-1.19392E+04-2.59653E-10-4.32737E-11
 -1       818-2.33652E+04-2.11938E+05-1.88643E+04-1.02141E+04 1.00044E-10 1.38500E-11
 -1       819-2.42930E+04-2.18268E+05-1.97552E+04-8.02894E+03 2.20857E-10 7.41195E-11
 -1       820-2.51198E+04-2.25326E+05-2.06987E+04-5.31904E+03-2.79711E-10-1.11229E-10
 -1       821-2.58369E+04-2.33164E+05-2.16937E+04-2.00654E+03-7.20298E-11 2.96957E-11
 -1       822-2.64408E+04-2.41832E+05-2.27391E+04 2.00384E+03-1.26354E-10 5.43992E-12
 -1       823-2.69363E+04-2.51369E+05-2.38346E+04 6.83071E+03 5.11226E-11-6.91552E-11
 -1       824-2.73380E+04-2.61808E+05-2.49809E+04 1.26243E+04 1.21622E-10 2.21561E-11
 -1       825-2.76713E+04-2.73172E+05-2.61803E+04 1.95773E+04 2.30846E-10 2.96485E-11
 -1       826-2.79718E+04-2.85483E+05-2.74370E+04 2.79391E+04-9.83337E-11-4.84882E-11
 -1       827-2.82800E+04-2.98772E+05-2.87580E+04 3.80318E+04 8.80885E-12 8.33875E-11
 -1       828-2.86285E+04-3.13101E+05-3.01538E+04 5.02674E+04-2.04742E-10-4.64516E-11
 -1       829-2.90215E+04-3.28600E+05-3.16392E+04 6.51605E+04-2.03392E-11-2.65845E-11
 -1       830-2.94021E+04-3.45520E+05-3.32343E+04 8.33278E+04-4.63970E-10-8.54766E-12
 -1       831-3.13744E+04-3.71047E+05-3.58151E+04 9.50547E+04 2.84524E-10-6.07708E-11
 -1       901-1.70442E+03-1.54493E+05-2.45499E+04-1.51976E+03-2.26728E-10-3.79368E-11
 -1       902-3.09255E+03-1.58013E+05-2.17752E+04-2.87189E+03 1.01172E-09 1.88585E-10
 -1       903-5.60877E+03-1.61134E+05-2.01212E+04-5.31082E+03-5.09244E-10-1.10624E-10
 -1       904-7.72907E+03-1.63863E+05-1.90512E+04-7.25597E+03 1.68096E-10 4.77951E-11
 -1       905-9.60875E+03-1.66354E+05-1.83842E+04-8.82864E+03-1.61862E-10-6.02141E-11
 -1       906-1.13373E+04-1.68721E+05-1.80094E+04-1.01101E+04-2.06848E-11-3.17577E-11
 -1       907-1.29692E+04-1.71055E+05-1.78561E+04-1.11545E+04-1.80081E-10-4.88277E-11
 -1       908-1.45390E+04-1.73429E+05-1.78771E+04-1.19955E+04 1.79573E-10 7.01573E-11
 -1       909-1.60678E+04-1.75907E+05-1.80403E+04-1.26519E+04 2.68512E-11 5.13351E-13
 -1       910-1.75676E+04-1.78547E+05-1.83232E+04-1.31308E+04-2.15530E-10-8.47921E-11
 -1       911-1.90433E+04-1.81407E+05-1.87096E+04-1.34304E+04-2.70272E-11 1.69786E-11
 -1       912-2.04943E+04-1.84543E+05-1.91876E+04-1.35416E+04-1.95546E-10-3.07399E-11
 -1       913-2.19151E+04-1.88013E+05-1.97484E+04-1.34495E+04-2.55823E-10-8.78296E-11
 -1       914-2.32969E+04-1.91876E+05-2.03851E+04-1.31338E+04 1.90531E-10 5.15190E-11
 -1       915-2.46273E+04-1.96196E+05-2.10923E+04-1.25692E+04 1.16328E-10-1.13968E-11
 -1       916-2.58914E+04-2.01034E+05-2.18655E+04-1.17252E+04-6.62584E-11-8.12643E-12
 -1       917-2.70721E+04-2.06459E+05-2.27009E+04-1.05654E+04 1.38051E-10-7.83494E-12
 -1       918-2.81507E+04-2.12539E+05-2.35952E+04-9.04670E+03 8.70986E-11 2.43769E-11
 -1       919-2.91070E+04-2.19344E+05-2.45455E+04-7.11749E+03-2.77036E-10-9.87357E-11
 -1       920-2.99208E+04-2.26944E+05-2.55491E+04-4.71579E+03-1.92249E-10-1.05102E-11
 -1       921-3.05718E+04-2.35414E+05-2.66037E+04-1.76612E+03-2.66540E-11 6.34554E-13
 -1       922-3.10406E+04-2.44826E+05-2.77072E+04 1.82444E+03 1.77236E-10-5.59535E-12
 -1       923-3.13093E+04-2.55256E+05-2.88579E+04 6.17148E+03-2.00954E-12 1.50502E-11
 -1       924-3.13608E+04-2.66780E+05-3.00547E+04 1.14199E+04-1.83473E-10-3.51914E-11
 -1       925-3.11779E+04-2.79482E+05-3.12975E+04 1.77523E+04-3.94430E-10-1.02617E-10
 -1       926-3.07397E+04-2.93459E+05-3.25868E+04 2.53978E+04 4.32030E-10 1.07005E-10
 -1       927-3.00153E+04-3.08832E+05-3.39246E+04 3.46429E+04-2.19113E-10-5.52043E-11
 -1       928-2.89540E+04-3.25762E+05-3.53143E+04 4.58390E+04 2.28589E-10 3.46198E-11
 -1       929-2.74703E+04-3.44472E+05-3.67608E+04 5.94070E+04 1.38072E-10-1.95821E-11
 -1       930-2.54271E+04-3.65278E+05-3.82701E+04 7.58319E+04 3.80719E-10 5.37218E-11
 -1       931-2.61319E+04-3.93835E+05-4.07231E+04 8.64169E+04-1.90648E-10-3.57208E-11
 -1      1001-2.09037E+03-1.50643E+05-3.02811E+04-1.28465E+03-4.85465E-10-7.60357E-11
 -1      1002-3.74360E+03-1.54510E+05-2.68593E+04-2.43462E+03 1.99769E-10-1.56661E-11
 -1      1003-6.77106E+03-1.57975E+05-2.48032E+04-4.51105E+03-9.45510E-11-2.59960E-11
 -1      1004-9.29359E+03-1.61002E+05-2.34544E+04-6.17636E+03-7.61220E-11 2.93883E-11
 -1      1005-1.15083E+04-1.63752E+05-2.25921E+04-7.52797E+03 5.84288E-11-9.40394E-12
 -1      1006-1.35276E+04-1.66347E+05-2.20812E+04-8.63122E+03-2.28726E-10-2.19578E-11
 -1      1007-1.54191E+04-1.68887E+05-2.18351E+04-9.52986E+03-1.91009E-10-4.13444E-11
 -1      1008-1.72240E+04-1.71452E+05-2.17960E+04-1.02520E+04 8.09142E-11 1.54471E-12
 -1      1009-1.89676E+04-1.74116E+05-2.19242E+04-1.08137E+04-5.56193E-10-1.05040E-10
 -1      1010-2.06641E+04-1.76943E+05-2.21916E+04-1.12219E+04 2.44024E-10 5.38843E-11
 -1      1011-2.23197E+04-1.79996E+05-2.25781E+04-1.14760E+04-2.69032E-10-2.86461E-11
 -1      1012-2.39344E+04-1.83336E+05-2.30685E+04-1.15691E+04 3.35009E-10 7.96579E-11
 -1      1013-2.55030E+04-1.87026E+05-2.36515E+04-1.14892E+04-1.20046E-10-2.56059E-11
 -1      1014-2.70162E+04-1.91128E+05-2.43182E+04-1.12195E+04-2.32822E-11-9.25481E-13
 -1      1015-2.84606E+04-1.95709E+05-2.50614E+04-1.07384E+04-4.02569E-10-9.97765E-11
 -1      1016-2.98194E+04-2.00838E+05-2.58754E+04-1.00195E+04 1.42774E-10 5.82006E-11
 -1      1017-3.10727E+04-2.06588E+05-2.67552E+04-9.03069E+03-4.80456E-11 3.36295E-12
 -1      1018-3.21976E+04-2.13034E+05-2.76963E+04-7.73351E+03-3.21980E-10-4.40841E-11
 -1      1019-3.31680E+04-2.20256E+05-2.86948E+04-6.08144E+03-1.08602E-10-1.85171E-11
 -1      1020-3.39553E+04-2.28340E+05-2.97469E+04-4.01798E+03 9.00782E-11-2.11575E-12
 -1      1021-3.45276E+04-2.37375E+05-3.08493E+04-1.47400E+03-1.33331E-10-1.17005E-11
 -1      1022-3.48498E+04-2.47457E+05-3.19985E+04 1.63567E+03 3.13023E-10 1.69335E-11
 -1      1023-3.48824E+04-2.58692E+05-3.31911E+04 5.41646E+03-4.10419E-10-6.09198E-11
 -1      1024-3.45800E+04-2.71195E+05-3.44242E+04 9.99918E+03 2.36115E-10 2.99603E-11
 -1      1025-3.38887E+04-2.85096E+05-3.56945E+04 1.55458E+04-3.27563E-11-4.62106E-11
 -1      1026-3.27420E+04-3.00550E+05-3.69992E+04 2.22559E+04 9.09480E-11 4.16640E-11
 -1      1027-3.10544E+04-3.17742E+05-3.83350E+04 3.03721E+04-3.77798E-10-9.30865E-11
 -1      1028-2.87140E+04-3.36898E+05-3.96990E+04 4.01850E+04-3.23366E-10-1.24511E-11
 -1      1029-2.55723E+04-3.58306E+05-4.10872E+04 5.20341E+04 5.52748E-10 9.43721E-11
 -1      1030-2.14351E+04-3.82320E+05-4.24950E+04 6.63035E+04 4.32249E-11 2.31458E-11
 -1      1031-2.10477E+04-4.13308E+05-4.48084E+04 7.54882E+04 3.62054E-10 5.43903E-11
 -1      1101-2.41033E+03-1.47431E+05-3.50988E+04-1.03853E+03 2.11323E-10-4.42178E-12
 -1      1102-4.28230E+03-1.51571E+05-3.11410E+04-1.97285E+03 4.70969E-10 8.69239E-11
 -1      1103-7.73266E+03-1.55312E+05-2.87495E+04-3.66089E+03-3.91605E-10-5.96777E-11
 -1      1104-1.05867E+04-1.58582E+05-2.71668E+04-5.02056E+03 2.82034E-10 2.43210E-11
 -1      1105-1.30760E+04-1.61546E+05-2.61397E+04-6.12768E+03 5.01652E-10 8.79053E-11
 -1      1106-1.53325E+04-1.64333E+05-2.55129E+04-7.03303E+03 3.26106E-10 4.74410E-11
 -1      1107-1.74348E+04-1.67048E+05-2.51867E+04-7.77077E+03-7.00664E-11-4.15099E-12
 -1      1108-1.94307E+04-1.69777E+05-2.50945E+04-8.36307E+03-1.08770E-10-3.61573E-11
 -1      1109-2.13489E+04-1.72600E+05-2.51905E+04-8.82302E+03 6.15044E-11 9.62860E-12
 -1      1110-2.32056E+04-1.75585E+05-2.54422E+04-9.15648E+03 3.20207E-10 5.86732E-11
 -1      1111-2.50080E+04-1.78800E+05-2.58258E+04-9.36340E+03-4.92597E-11 4.04199E-12
 -1      1112-2.67565E+04-1.82311E+05-2.63237E+04-9.43875E+03-1.21654E-10-7.62902E-11
 -1      1113-2.84459E+04-1.86183E+05-2.69225E+04-9.37312E+03 2.85007E-10 8.43014E-11
 -1      1114-3.00661E+04-1.90484E+05-2.76115E+04-9.15300E+03 3.02614E-10 5.82421E-11
 -1      1115-3.16028E+04-1.95284E+05-2.83824E+04-8.76078E+03-1.31106E-10-3.75362E-11
 -1      1116-3.30371E+04-2.00655E+05-2.92281E+04-8.17458E+03 9.07332E-11 6.51693E-12
 -1      1117-3.43465E+04-2.06677E+05-3.01425E+04-7.36756E+03 8.60361E-11 6.90841E-12
 -1      1118-3.55037E+04-2.13432E+05-3.11203E+04-6.30713E+03 3.21567E-11-1.44189E-11
 -1      1119-3.64773E+04-2.21009E+05-3.21566E+04-4.95362E+03-2.20459E-11 1.84725E-11
 -1      1120-3.72305E+04-2.29505E+05-3.32467E+04-3.25863E+03 1.59388E-10 5.01300E-11
 -1      1121-3.77211E+04-2.39024E+05-3.43859E+04-1.16279E+03 1.02844E-10 1.84138E-11
 -1      1122-3.78994E+04-2.49683E+05-3.55697E+04 1.40687E+03-4.81171E-11-3.86914E-11
 -1      1123-3.77075E+04-2.61611E+05-3.67930E+04 4.54018E+03 3.81072E-10 8.15916E-11
 -1      1124-3.70764E+04-2.74954E+05-3.80507E+04 8.34761E+03-4.65775E-10-2.82679E-11
 -1      1125-3.59224E+04-2.89879E+05-3.93370E+04 1.29642E+04 2.89757E-10 4.07509E-11
 -1      1126-3.41438E+04-3.06583E+05-4.06456E+04 1.85536E+04-1.96651E-10-3.43830E-11
 -1      1127-3.16140E+04-3.25295E+05-4.19691E+04 2.53120E+04 1.24303E-10 2.93897E-11
 -1      1128-2.81765E+04-3.46290E+05-4.32986E+04 3.34700E+04 4.99115E-11 5.56452E-13
 -1      1129-2.36368E+04-3.69896E+05-4.46237E+04 4.32939E+04-4.83661E-11-1.83686E-11
 -1      1130-1.77574E+04-3.96502E+05-4.59313E+04 5.50838E+04-2.59727E-10-5.38109E-11
 -1      1131-1.64633E+04-4.29424E+05-4.81128E+04 6.26661E+04 1.28608E-10 3.42250E-11
 -1      1201-2.66164E+03-1.44895E+05-3.89257E+04-7.84721E+02-3.41165E-10-4.58122E-11
 -1      1202-4.70488E+03-1.49241E+05-3.45471E+04-1.49345E+03-2.62978E-10-3.79063E-11
 -1      1203-8.48703E+03-1.53193E+05-3.18910E+04-2.77433E+03 5.76095E-10 8.92703E-11
 -1      1204-1.16006E+04-1.56651E+05-3.01232E+04-3.80938E+03-1.30874E-10-2.69181E-11
 -1      1205-1.43040E+04-1.59783E+05-2.89648E+04-4.65429E+03-2.18251E-10-3.99727E-11
 -1      1206-1.67447E+04-1.62722E+05-2.82449E+04-5.34635E+03 1.19598E-10-2.49328E-12
 -1      1207-1.90104E+04-1.65576E+05-2.78539E+04-5.91068E+03 8.83991E-11 1.88095E-11
 -1      1208-2.11539E+04-1.68438E+05-2.77182E+04-6.36368E+03-6.32979E-12-3.66600E-11
 -1      1209-2.32071E+04-1.71387E+05-2.77871E+04-6.71517E+03 3.68355E-11 1.11482E-11
 -1      1210-2.51878E+04-1.74499E+05-2.80245E+04-6.96968E+03 1.43501E-10 1.22529E-11
 -1      1211-2.71040E+04-1.77843E+05-2.84042E+04-7.12738E+03 1.57489E-10 2.02901E-11
 -1      1212-2.89563E+04-1.81490E+05-2.89063E+04-7.18467E+03-4.10864E-10-4.94198E-11
 -1      1213-3.07393E+04-1.85506E+05-2.95159E+04-7.13457E+03 1.27148E-10 2.98753E-12
 -1      1214-3.24423E+04-1.89964E+05-3.02210E+04-6.96692E+03-1.25795E-10-1.75692E-11
 -1      1215-3.40498E+04-1.94936E+05-3.10122E+04-6.66827E+03 3.20126E-12-5.69270E-12
 -1      1216-3.55413E+04-2.00500E+05-3.18814E+04-6.22173E+03-2.87639E-10-1.55541E-11
 -1      1217-3.68917E+04-2.06738E+05-3.28217E+04-5.60645E+03 8.63713E-11 6.87754E-12
 -1      1218-3.80701E+04-2.13739E+05-3.38270E+04-4.79687E+03 3.06661E-10 8.71050E-11
 -1      1219-3.90402E+04-2.21600E+05-3.48916E+04-3.76180E+03-1.14514E-10-2.99369E-11
 -1      1220-3.97585E+04-2.30427E+05-3.60099E+04-2.46304E+03-1.17753E-11-4.78927E-11
 -1      1221-4.01737E+04-2.40338E+05-3.71763E+04-8.53755E+02 6.72788E-11 1.69388E-11
 -1      1222-4.02246E+04-2.51463E+05-3.83850E+04 1.12349E+03-2.52231E-10-8.70369E-11
 -1      1223-3.98385E+04-2.63952E+05-3.96296E+04 3.53905E+03 5.70601E-11 2.41776E-11
 -1      1224-3.89275E+04-2.77972E+05-4.09031E+04 6.47878E+03-1.62460E-10 4.83437E-11
 -1      1225-3.73860E+04-2.93718E+05-4.21977E+04 1.00467E+04 9.84143E-11-2.25031E-11
 -1      1226-3.50856E+04-3.11416E+05-4.35040E+04 1.43674E+04-2.83252E-10-1.81434E-11
 -1      1227-3.18704E+04-3.31329E+05-4.48112E+04 1.95889E+04 4.39263E-10 6.15011E-11
 -1      1228-2.75513E+04-3.53764E+05-4.61062E+04 2.58832E+04-2.70354E-10-4.73797E-11
 -1      1229-2.19008E+04-3.79080E+05-4.73733E+04 3.34483E+04-2.80350E-10-2.35935E-11
 -1      1230-1.46475E+04-4.07691E+05-4.85933E+04 4.25073E+04-1.91915E-10-1.72198E-11
 -1      1231-1.26398E+04-4.42097E+05-5.06629E+04 4.83299E+04 3.06759E-10 3.73153E-11
 -1      1301-2.84240E+03-1.43064E+05-4.17017E+04-5.25749E+02 2.76085E-10 7.90611E-11
 -1      1302-5.00858E+03-1.47554E+05-3.70208E+04-1.00191E+03 5.71444E-11 8.80091E-13
 -1      1303-9.02925E+03-1.51655E+05-3.41738E+04-1.86262E+03-2.26098E-11-3.53660E-11
 -1      1304-1.23292E+04-1.55246E+05-3.22719E+04-2.55969E+03-5.37032E-11 1.59578E-11
 -1      1305-1.51859E+04-1.58499E+05-3.10181E+04-3.12972E+03-1.94092E-10-9.23399E-12
 -1      1306-1.77582E+04-1.61548E+05-3.02304E+04-3.59722E+03 1.57321E-10 1.47422E-12
 -1      1307-2.01401E+04-1.64503E+05-2.97918E+04-3.97869E+03 2.76683E-10 4.76147E-11
 -1      1308-2.23887E+04-1.67460E+05-2.96237E+04-4.28494E+03 4.95040E-11-6.90315E-13
 -1      1309-2.45380E+04-1.70502E+05-2.96722E+04-4.52249E+03 1.17901E-10 2.97877E-11
 -1      1310-2.66068E+04-1.73706E+05-2.98984E+04-4.69440E+03-2.08434E-10-3.56418E-11
 -1      1311-2.86040E+04-1.77145E+05-3.02743E+04-4.80085E+03-3.03156E-10-1.60359E-11
 -1      1312-3.05301E+04-1.80889E+05-3.07786E+04-4.83950E+03 1.81532E-10-1.63103E-12
 -1      1313-3.23797E+04-1.85011E+05-3.13951E+04-4.80574E+03-3.89359E-10-6.71071E-11
 -1      1314-3.41415E+04-1.89582E+05-3.21111E+04-4.69274E+03-6.52594E-11-8.27602E-12
 -1      1315-3.57990E+04-1.94679E+05-3.29161E+04-4.49142E+03 1.75471E-10 1.25244E-11
 -1      1316-3.73304E+04-2.00382E+05-3.38015E+04-4.19029E+03-1.70396E-11-3.68530E-12
 -1      1317-3.87085E+04-2.06777E+05-3.47598E+04-3.77506E+03 4.67357E-11 1.27754E-11
 -1      1318-3.98998E+04-2.13958E+05-3.57841E+04-3.22818E+03-1.79070E-10-1.00788E-11
 -1      1319-4.08638E+04-2.22026E+05-3.68683E+04-2.52814E+03 1.41229E-10 6.73288E-12
 -1      1320-4.15523E+04-2.31097E+05-3.80060E+04-1.64858E+03-9.27841E-11 1.38747E-11
 -1      1321-4.19071E+04-2.41294E+05-3.91909E+04-5.57197E+02-1.39059E-10-3.78499E-11
 -1      1322-4.18585E+04-2.52762E+05-4.04162E+04 7.85526E+02-4.05523E-11 4.95911E-11
 -1      1323-4.13229E+04-2.65662E+05-4.16746E+04 2.42784E+03 1.20756E-10-3.22236E-11
 -1      1324-4.01995E+04-2.80178E+05-4.29576E+04 4.42828E+03 1.00955E-10-1.13401E-11
 -1      1325-3.83669E+04-2.96523E+05-4.42557E+04 6.85731E+03-1.62124E-10 7.03612E-12
 -1      1326-3.56786E+04-3.14944E+05-4.55575E+04 9.79888E+03 1.49160E-10-1.23128E-11
 -1      1327-3.19585E+04-3.35724E+05-4.68496E+04 1.33518E+04 1.47701E-10-2.54145E-12
 -1      1328-2.69960E+04-3.59193E+05-4.81159E+04 1.76306E+04-2.73990E-11 1.92841E-11
 -1      1329-2.05401E+04-3.85730E+05-4.93372E+04 2.27667E+04-5.64442E-11 6.82232E-12
 -1      1330-1.22950E+04-4.15771E+05-5.04900E+04 2.89087E+04-2.71348E-11-8.03523E-12
 -1      1331-9.77266E+03-4.51232E+05-5.24749E+04 3.28551E+04 1.83442E-10 1.22867E-10
 -1      1401-2.95133E+03-1.41957E+05-4.33843E+04-2.63622E+02-1.18108E-10 3.64397E-11
 -1      1402-5.19152E+03-1.46532E+05-3.85212E+04-5.02777E+02-2.60075E-10-5.06464E-12
 -1      1403-9.35591E+03-1.50722E+05-3.55591E+04-9.35119E+02-1.47900E-10 1.91833E-11
 -1      1404-1.27681E+04-1.54393E+05-3.35760E+04-1.28571E+03-1.43893E-10 3.71423E-11
 -1      1405-1.57170E+04-1.57718E+05-3.22643E+04-1.57273E+03 1.46080E-10-4.24482E-12
 -1      1406-1.83682E+04-1.60834E+05-3.14354E+04-1.80829E+03-2.35947E-10 2.11572E-11
 -1      1407-2.08198E+04-1.63851E+05-3.09676E+04-2.00060E+03-2.94785E-10-2.47095E-11
 -1      1408-2.31313E+04-1.66866E+05-3.07798E+04-2.15501E+03-2.39636E-11 1.37555E-11
 -1      1409-2.53379E+04-1.69964E+05-3.08154E+04-2.27477E+03-4.20400E-11 6.13697E-12
 -1      1410-2.74595E+04-1.73224E+05-3.10346E+04-2.36142E+03-8.36334E-11 3.41990E-12
 -1      1411-2.95051E+04-1.76720E+05-3.14078E+04-2.41507E+03-1.85798E-10-2.25534E-11
 -1      1412-3.14755E+04-1.80524E+05-3.19131E+04-2.43455E+03-9.26973E-11-1.38550E-11
 -1      1413-3.33649E+04-1.84709E+05-3.25336E+04-2.41757E+03 1.83392E-10 1.12751E-11
 -1      1414-3.51618E+04-1.89348E+05-3.32557E+04-2.36070E+03-3.08747E-10-1.69139E-11
 -1      1415-3.68490E+04-1.94521E+05-3.40688E+04-2.25936E+03-1.08462E-11 4.42608E-13
 -1      1416-3.84039E+04-2.00308E+05-3.49636E+04-2.10772E+03-2.32263E-10-8.97164E-12
 -1      1417-3.97979E+04-2.06799E+05-3.59324E+04-1.89854E+03-3.04861E-10-9.04742E-12
 -1      1418-4.09958E+04-2.14089E+05-3.69680E+04-1.62287E+03-7.46993E-11-3.46831E-11
 -1      1419-4.19549E+04-2.22284E+05-3.80636E+04-1.26975E+03-6.74443E-11 2.26625E-11
 -1      1420-4.26234E+04-2.31503E+05-3.92127E+04-8.25738E+02-7.38688E-11 1.76631E-11
 -1      1421-4.29392E+04-2.41876E+05-4.04083E+04-2.74347E+02-1.53949E-10-1.63713E-11
 -1      1422-4.28275E+04-2.53553E+05-4.16431E+04 4.04530E+02-1.37352E-10-1.03834E-11
 -1      1423-4.21980E+04-2.66704E+05-4.29091E+04 1.23540E+03-4.45607E-11-1.66107E-11
 -1      1424-4.09422E+04-2.81522E+05-4.41971E+04 2.24791E+03-1.93933E-10-2.44299E-11
 -1      1425-3.89293E+04-2.98232E+05-4.54963E+04 3.47758E+03-5.90676E-11 1.03213E-11
 -1      1426-3.60024E+04-3.17090E+05-4.67943E+04 4.96663E+03-1.52569E-10-8.64022E-12
 -1      1427-3.19738E+04-3.38394E+05-4.80760E+04 6.76449E+03-3.52591E-10-3.30633E-11
 -1      1428-2.66198E+04-3.62486E+05-4.93236E+04 8.92847E+03 2.31558E-10 4.31416E-11
 -1      1429-1.96761E+04-3.89757E+05-5.05156E+04 1.15241E+04-1.92200E-10-2.52260E-11
 -1      1430-1.08316E+04-4.20656E+05-5.16263E+04 1.46259E+04 2.52534E-10 2.10288E-11
 -1      1431-7.99843E+03-4.56749E+05-5.35587E+04 1.66184E+04-7.58703E-11-1.59118E-11
 -1      1501-2.98772E+03-1.41587E+05-4.39480E+04-1.52294E+03 1.55405E-11-8.94646E-11
 -1      1502-5.25261E+03-1.46190E+05-3.90241E+04-1.53258E+03 1.55007E-10 4.50983E-11
 -1      1503-9.46501E+03-1.50409E+05-3.60234E+04-1.56368E+03-1.05725E-10 5.24726E-11
 -1      1504-1.29147E+04-1.54107E+05-3.40131E+04-1.61063E+03 1.00216E-09-5.71408E-12
 -1      1505-1.58943E+04-1.57457E+05-3.26821E+04-1.67006E+03-1.72343E-10-2.70811E-11
 -1      1506-1.85718E+04-1.60594E+05-3.18393E+04-1.73979E+03-3.55374E-10 4.40062E-12
 -1      1507-2.10467E+04-1.63631E+05-3.13618E+04-1.81838E+03 6.12773E-10 1.48353E-11
 -1      1508-2.33791E+04-1.66666E+05-3.11672E+04-1.90477E+03-3.48581E-10-1.47074E-11
 -1      1509-2.56048E+04-1.69783E+05-3.11986E+04-1.99813E+03 3.56130E-10-1.58306E-12
 -1      1510-2.77440E+04-1.73062E+05-3.14153E+04-2.09777E+03-4.17366E-10-6.44720E-12
 -1      1511-2.98057E+04-1.76577E+05-3.17876E+04-2.20301E+03 4.93667E-10 2.97241E-12
 -1      1512-3.17908E+04-1.80401E+05-3.22932E+04-2.31321E+03-1.16724E-10-5.51813E-12
 -1      1513-3.36935E+04-1.84607E+05-3.29149E+04-2.42763E+03-5.26892E-10-6.29201E-12
 -1      1514-3.55020E+04-1.89270E+05-3.36390E+04-2.54552E+03 1.48728E-10 2.43428E-11
 -1      1515-3.71991E+04-1.94468E+05-3.44547E+04-2.66597E+03 2.33699E-11 4.29370E-11
 -1      1516-3.87618E+04-2.00283E+05-3.53527E+04-2.78794E+03-1.90045E-10-3.22738E-11
 -1      1517-4.01610E+04-2.06806E+05-3.63250E+04-2.91017E+03 1.66590E-10-5.34439E-11
 -1      1518-4.13609E+04-2.14132E+05-3.73642E+04-3.03114E+03-1.65429E-10-1.21214E-11
 -1      1519-4.23180E+04-2.22370E+05-3.84636E+04-3.14895E+03 6.92912E-11 6.59368E-11
 -1      1520-4.29795E+04-2.31639E+05-3.96164E+04-3.26124E+03-1.23710E-10-8.00674E-11
 -1      1521-4.32819E+04-2.42071E+05-4.08155E+04-3.36504E+03 3.51015E-10 3.48841E-11
 -1      1522-4.31485E+04-2.53819E+05-4.20535E+04-3.45661E+03-2.44951E-10-2.49982E-11
 -1      1523-4.24871E+04-2.67054E+05-4.33219E+04-3.53127E+03 1.98708E-11-8.36793E-12
 -1      1524-4.11863E+04-2.81974E+05-4.46114E+04-3.58316E+03 1.43573E-10 9.19986E-12
 -1      1525-3.91124E+04-2.98806E+05-4.59108E+04-3.60509E+03 3.18710E-10-6.15270E-12
 -1      1526-3.61051E+04-3.17811E+05-4.72073E+04-3.58823E+03 2.62084E-10 2.56696E-11
 -1      1527-3.19726E+04-3.39290E+05-4.84853E+04-3.52198E+03-3.59050E-10-1.24466E-11
 -1      1528-2.64873E+04-3.63589E+05-4.97264E+04-3.39370E+03 1.78511E-10-8.95099E-12
 -1      1529-1.93802E+04-3.91105E+05-5.09084E+04-3.18854E+03 6.99069E-11 6.53480E-12
 -1      1530-1.03351E+04-4.22290E+05-5.20048E+04-2.88920E+03-4.38219E-10 5.33126E-11
 -1      1531-7.39804E+03-4.58593E+05-5.39194E+04-2.55042E+03 2.18716E-10-8.81010E-11
 -3
    1PSTEP                         9           5           1          
  100CL  105 5.00000E-01         496                     0    5           1
 -4  DISP        4    1
 -5  D1          1    2    1    0
 -5  D2          1    2    2    0
 -5  D3          1    2    3    0
 -5  ALL         1    2    0    0    1ALL
 -1         1 9.65618E-09 5.73178E-08 5.91251E-25
 -1         2 1.00629E-08 5.81292E-08 6.16157E-25
 -1         3 1.06189E-08 5.88938E-08 6.50196E-25
 -1         4 1.12870E-08 5.96257E-08 6.91108E-25
 -1         5 1.20507E-08 6.03390E-08 7.37866E-25
 -1         6 1.29020E-08 6.10498E-08 7.89997E-25
 -1         7 1.38378E-08 6.17764E-08 8.47295E-25
 -1         8 1.48568E-08 6.25380E-08 9.09687E-25
 -1         9 1.59589E-08 6.33550E-08 9.77167E-25
 -1        10 1.71444E-08 6.42483E-08 1.04976E-24
 -1        11 1.84140E-08 6.52403E-08 1.12750E-24
 -1        12 1.97680E-08 6.63540E-08 1.21040E-24
 -1        13 2.12064E-08 6.76139E-08 1.29848E-24
 -1        14 2.27286E-08 6.90459E-08 1.39168E-24
 -1        15 2.43330E-08 7.06774E-08 1.48992E-24
 -1        16 2.60168E-08 7.25370E-08 1.59302E-24
 -1        17 2.77757E-08 7.46553E-08 1.70071E-24
 -1        18 2.96031E-08 7.70638E-08 1.81261E-24
 -1        19 3.14899E-08 7.97951E-08 1.92814E-24
 -1        20 3.34239E-08 8.28823E-08 2.04655E-24
 -1        21 3.53887E-08 8.63577E-08 2.16686E-24
 -1        22 3.73633E-08 9.02518E-08 2.28777E-24
 -1        23 3.93211E-08 9.45907E-08 2.40764E-24
 -1        24 4.12287E-08 9.93933E-08 2.52445E-24
 -1        25 4.30456E-08 1.04666E-07 2.63570E-24
 -1        26 4.47237E-08 1.10396E-07 2.73845E-24
 -1        27 4.62085E-08 1.16540E-07 2.82936E-24
 -1        28 4.74419E-08 1.23006E-07 2.90488E-24
 -1        29 4.83714E-08 1.29628E-07 2.96180E-24
 -1        30 4.89683E-08 1.36118E-07 2.99835E-24
 -1        31 4.92840E-08 1.42105E-07 3.01767E-24
 -1       101 7.06677E-09 5.04301E-08 4.32700E-25
 -1       102 7.56854E-09 5.12625E-08 4.63424E-25
 -1       103 8.14739E-09 5.20215E-08 4.98867E-25
 -1       104 8.78995E-09 5.27263E-08 5.38212E-25
 -1       105 9.48562E-09 5.33972E-08 5.80808E-25
 -1       106 1.02264E-08 5.40549E-08 6.26165E-25
 -1       107 1.10065E-08 5.47200E-08 6.73934E-25
 -1       108 1.18219E-08 5.54135E-08 7.23861E-25
 -1       109 1.26695E-08 5.61566E-08 7.75759E-25
 -1       110 1.35468E-08 5.69717E-08 8.29475E-25
 -1       111 1.44514E-08 5.78815E-08 8.84866E-25
 -1       112 1.53810E-08 5.89104E-08 9.41786E-25
 -1       113 1.63329E-08 6.00837E-08 1.00007E-24
 -1       114 1.73040E-08 6.14284E-08 1.05953E-24
 -1       115 1.82907E-08 6.29731E-08 1.11994E-24
 -1       116 1.92885E-08 6.47482E-08 1.18104E-24
 -1       117 2.02925E-08 6.67857E-08 1.24252E-24
 -1       118 2.12970E-08 6.91194E-08 1.30402E-24
 -1       119 2.22956E-08 7.17843E-08 1.36517E-24
 -1       120 2.32813E-08 7.48162E-08 1.42552E-24
 -1       121 2.42468E-08 7.82509E-08 1.48464E-24
 -1       122 2.51850E-08 8.21228E-08 1.54208E-24
 -1       123 2.60890E-08 8.64631E-08 1.59744E-24
 -1       124 2.69533E-08 9.12967E-08 1.65036E-24
 -1       125 2.77740E-08 9.66387E-08 1.70061E-24
 -1       126 2.85497E-08 1.02488E-07 1.74811E-24
 -1       127 2.92808E-08 1.08822E-07 1.79287E-24
 -1       128 2.99674E-08 1.15582E-07 1.83492E-24
 -1       129 3.06015E-08 1.22666E-07 1.87374E-24
 -1       130 3.11488E-08 1.29898E-07 1.90725E-24
 -1       131 3.15447E-08 1.36838E-07 1.93149E-24
 -1       201 6.17821E-09 4.60179E-08 3.78294E-25
 -1       202 6.56027E-09 4.68811E-08 4.01687E-25
 -1       203 7.04417E-09 4.76538E-08 4.31317E-25
 -1       204 7.59382E-09 4.83581E-08 4.64972E-25
 -1       205 8.19166E-09 4.90221E-08 5.01578E-25
 -1       206 8.82743E-09 4.96690E-08 5.40506E-25
 -1       207 9.49437E-09 5.03198E-08 5.81343E-25
 -1       208 1.01877E-08 5.09948E-08 6.23797E-25
 -1       209 1.09039E-08 5.17144E-08 6.67650E-25
 -1       210 1.16402E-08 5.24991E-08 7.12733E-25
 -1       211 1.23942E-08 5.33700E-08 7.58901E-25
 -1       212 1.31637E-08 5.43493E-08 8.06019E-25
 -1       213 1.39465E-08 5.54604E-08 8.53951E-25
 -1       214 1.47404E-08 5.67278E-08 9.02557E-25
 -1       215 1.55426E-08 5.81777E-08 9.51680E-25
 -1       216 1.63505E-08 5.98378E-08 1.00115E-24
 -1       217 1.71610E-08 6.17373E-08 1.05077E-24
 -1       218 1.79707E-08 6.39070E-08 1.10035E-24
 -1       219 1.87760E-08 6.63792E-08 1.14966E-24
 -1       220 1.95732E-08 6.91871E-08 1.19847E-24
 -1       221 2.03587E-08 7.23646E-08 1.24657E-24
 -1       222 2.11287E-08 7.59452E-08 1.29372E-24
 -1       223 2.18801E-08 7.99612E-08 1.33972E-24
 -1       224 2.26097E-08 8.44421E-08 1.38440E-24
 -1       225 2.33144E-08 8.94128E-08 1.42755E-24
 -1       226 2.39903E-08 9.48918E-08 1.46893E-24
 -1       227 2.46296E-08 1.00889E-07 1.50808E-24
 -1       228 2.52153E-08 1.07407E-07 1.54394E-24
 -1       229 2.57070E-08 1.14447E-07 1.57405E-24
 -1       230 2.60081E-08 1.22029E-07 1.59248E-24
 -1       231 2.57918E-08 1.30359E-07 1.57924E-24
 -1       301 5.09993E-09 4.17043E-08 3.12270E-25
 -1       302 5.47220E-09 4.26206E-08 3.35064E-25
 -1       303 5.89816E-09 4.33954E-08 3.61146E-25
 -1       304 6.37212E-09 4.40921E-08 3.90167E-25
 -1       305 6.88277E-09 4.47426E-08 4.21434E-25
 -1       306 7.42177E-09 4.53722E-08 4.54437E-25
 -1       307 7.98312E-09 4.60024E-08 4.88809E-25
 -1       308 8.56240E-09 4.66531E-08 5.24279E-25
 -1       309 9.15629E-09 4.73434E-08 5.60642E-25
 -1       310 9.76213E-09 4.80922E-08 5.97738E-25
 -1       311 1.03778E-08 4.89192E-08 6.35434E-25
 -1       312 1.10013E-08 4.98446E-08 6.73613E-25
 -1       313 1.16311E-08 5.08896E-08 7.12173E-25
 -1       314 1.22654E-08 5.20765E-08 7.51013E-25
 -1       315 1.29027E-08 5.34291E-08 7.90034E-25
 -1       316 1.35413E-08 5.49725E-08 8.29138E-25
 -1       317 1.41796E-08 5.67333E-08 8.68223E-25
 -1       318 1.48160E-08 5.87396E-08 9.07191E-25
 -1       319 1.54489E-08 6.10209E-08 9.45938E-25
 -1       320 1.60765E-08 6.36080E-08 9.84368E-25
 -1       321 1.66973E-08 6.65329E-08 1.02238E-24
 -1       322 1.73097E-08 6.98282E-08 1.05988E-24
 -1       323 1.79119E-08 7.35267E-08 1.09675E-24
 -1       324 1.85013E-08 7.76611E-08 1.13284E-24
 -1       325 1.90737E-08 8.22635E-08 1.16789E-24
 -1       326 1.96217E-08 8.73656E-08 1.20144E-24
 -1       327 2.01304E-08 9.30005E-08 1.23259E-24
 -1       328 2.05718E-08 9.92072E-08 1.25962E-24
 -1       329 2.08911E-08 1.06044E-07 1.27917E-24
 -1       330 2.09808E-08 1.13624E-07 1.28466E-24
 -1       331 2.06632E-08 1.22192E-07 1.26521E-24
 -1       401 3.97504E-09 3.75479E-08 2.43393E-25
 -1       402 4.33359E-09 3.84734E-08 2.65347E-25
 -1       403 4.72418E-09 3.92469E-08 2.89263E-25
 -1       404 5.13961E-09 3.99296E-08 3.14700E-25
 -1       405 5.57602E-09 4.05607E-08 3.41421E-25
 -1       406 6.02896E-09 4.11673E-08 3.69155E-25
 -1       407 6.49456E-09 4.17712E-08 3.97664E-25
 -1       408 6.96961E-09 4.23918E-08 4.26751E-25
 -1       409 7.45149E-09 4.30471E-08 4.56257E-25
 -1       410 7.93808E-09 4.37548E-08 4.86051E-25
 -1       411 8.42766E-09 4.45328E-08 5.16029E-25
 -1       412 8.91880E-09 4.53996E-08 5.46101E-25
 -1       413 9.41032E-09 4.63743E-08 5.76197E-25
 -1       414 9.90121E-09 4.74772E-08 6.06254E-25
 -1       415 1.03906E-08 4.87297E-08 6.36222E-25
 -1       416 1.08779E-08 5.01544E-08 6.66059E-25
 -1       417 1.13625E-08 5.17754E-08 6.95730E-25
 -1       418 1.18440E-08 5.36183E-08 7.25210E-25
 -1       419 1.23220E-08 5.57101E-08 7.54481E-25
 -1       420 1.27964E-08 5.80793E-08 7.83528E-25
 -1       421 1.32669E-08 6.07560E-08 8.12336E-25
 -1       422 1.37330E-08 6.37716E-08 8.40877E-25
 -1       423 1.41937E-08 6.71590E-08 8.69086E-25
 -1       424 1.46467E-08 7.09530E-08 8.96820E-25
 -1       425 1.50871E-08 7.51902E-08 9.23789E-25
 -1       426 1.55060E-08 7.99112E-08 9.49435E-25
 -1       427 1.58866E-08 8.51629E-08 9.72740E-25
 -1       428 1.61997E-08 9.10046E-08 9.91913E-25
 -1       429 1.63958E-08 9.75205E-08 1.00392E-24
 -1       430 1.63970E-08 1.04841E-07 1.00400E-24
 -1       431 1.60905E-08 1.13184E-07 9.85227E-25
 -1       501 2.84777E-09 3.35496E-08 1.74370E-25
 -1       502 3.19457E-09 3.44543E-08 1.95605E-25
 -1       503 3.55314E-09 3.52097E-08 2.17560E-25
 -1       504 3.91978E-09 3.58710E-08 2.40009E-25
 -1       505 4.29257E-09 3.64767E-08 2.62835E-25
 -1       506 4.66996E-09 3.70547E-08 2.85943E-25
 -1       507 5.05020E-09 3.76269E-08 3.09225E-25
 -1       508 5.43150E-09 3.82119E-08 3.32572E-25
 -1       509 5.81227E-09 3.88270E-08 3.55887E-25
 -1       510 6.19113E-09 3.94885E-08 3.79085E-25
 -1       511 6.56694E-09 4.02127E-08 4.02096E-25
 -1       512 6.93881E-09 4.10163E-08 4.24865E-25
 -1       513 7.30610E-09 4.19166E-08 4.47355E-25
 -1       514 7.66840E-09 4.29319E-08 4.69538E-25
 -1       515 8.02553E-09 4.40812E-08 4.91406E-25
 -1       516 8.37756E-09 4.53850E-08 5.12961E-25
 -1       517 8.72476E-09 4.68651E-08 5.34220E-25
 -1       518 9.06765E-09 4.85444E-08 5.55215E-25
 -1       519 9.40688E-09 5.04477E-08 5.75986E-25
 -1       520 9.74324E-09 5.26012E-08 5.96582E-25
 -1       521 1.00775E-08 5.50332E-08 6.17047E-25
 -1       522 1.04100E-08 5.77736E-08 6.37409E-25
 -1       523 1.07406E-08 6.08550E-08 6.57651E-25
 -1       524 1.10676E-08 6.43127E-08 6.77672E-25
 -1       525 1.13869E-08 6.81859E-08 6.97222E-25
 -1       526 1.16904E-08 7.25199E-08 7.15804E-25
 -1       527 1.19637E-08 7.73682E-08 7.32540E-25
 -1       528 1.21832E-08 8.27988E-08 7.45981E-25
 -1       529 1.23126E-08 8.89021E-08 7.53907E-25
 -1       530 1.23005E-08 9.58040E-08 7.53162E-25
 -1       531 1.20819E-08 1.03684E-07 7.39778E-25
 -1       601 1.75099E-09 2.97044E-08 1.07214E-25
 -1       602 2.08631E-09 3.05659E-08 1.27745E-25
 -1       603 2.41565E-09 3.12870E-08 1.47911E-25
 -1       604 2.73870E-09 3.19164E-08 1.67691E-25
 -1       605 3.05566E-09 3.24895E-08 1.87099E-25
 -1       606 3.36661E-09 3.30331E-08 2.06138E-25
 -1       607 3.67131E-09 3.35682E-08 2.24795E-25
 -1       608 3.96926E-09 3.41127E-08 2.43039E-25
 -1       609 4.25983E-09 3.46826E-08 2.60831E-25
 -1       610 4.54243E-09 3.52931E-08 2.78134E-25
 -1       611 4.81656E-09 3.59588E-08 2.94919E-25
 -1       612 5.08190E-09 3.66950E-08 3.11166E-25
 -1       613 5.33834E-09 3.75171E-08 3.26868E-25
 -1       614 5.58602E-09 3.84412E-08 3.42034E-25
 -1       615 5.82534E-09 3.94846E-08 3.56687E-25
 -1       616 6.05698E-09 4.06654E-08 3.70871E-25
 -1       617 6.28191E-09 4.20031E-08 3.84643E-25
 -1       618 6.50135E-09 4.35184E-08 3.98080E-25
 -1       619 6.71678E-09 4.52338E-08 4.11270E-25
 -1       620 6.92980E-09 4.71732E-08 4.24314E-25
 -1       621 7.14203E-09 4.93629E-08 4.37309E-25
 -1       622 7.35489E-09 5.18312E-08 4.50342E-25
 -1       623 7.56916E-09 5.46095E-08 4.63462E-25
 -1       624 7.78451E-09 5.77327E-08 4.76648E-25
 -1       625 7.99868E-09 6.12406E-08 4.89762E-25
 -1       626 8.20640E-09 6.51793E-08 5.02480E-25
 -1       627 8.39810E-09 6.96044E-08 5.14218E-25
 -1       628 8.55841E-09 7.45846E-08 5.24034E-25
 -1       629 8.66498E-09 8.02074E-08 5.30560E-25
 -1       630 8.68846E-09 8.65861E-08 5.31997E-25
 -1       631 8.59511E-09 9.38680E-08 5.26281E-25
 -1       701 7.09627E-10 2.60042E-08 4.34507E-26
 -1       702 1.03413E-09 2.68053E-08 6.33200E-26
 -1       703 1.33668E-09 2.74778E-08 8.18451E-26
 -1       704 1.62056E-09 2.80646E-08 9.92276E-26
 -1       705 1.88797E-09 2.85972E-08 1.15601E-25
 -1       706 2.14033E-09 2.91001E-08 1.31053E-25
 -1       707 2.37852E-09 2.95927E-08 1.45637E-25
 -1       708 2.60300E-09 3.00918E-08 1.59382E-25
 -1       709 2.81396E-09 3.06119E-08 1.72300E-25
 -1       710 3.01151E-09 3.11669E-08 1.84396E-25
 -1       711 3.19575E-09 3.17701E-08 1.95677E-25
 -1       712 3.36690E-09 3.24349E-08 2.06156E-25
 -1       713 3.52536E-09 3.31750E-08 2.15859E-25
 -1       714 3.67176E-09 3.40049E-08 2.24823E-25
 -1       715 3.80701E-09 3.49397E-08 2.33105E-25
 -1       716 3.93234E-09 3.59954E-08 2.40778E-25
 -1       717 4.04928E-09 3.71893E-08 2.47938E-25
 -1       718 4.15969E-09 3.85400E-08 2.54699E-25
 -1       719 4.26574E-09 4.00675E-08 2.61192E-25
 -1       720 4.36981E-09 4.17937E-08 2.67565E-25
 -1       721 4.47445E-09 4.37424E-08 2.73972E-25
 -1       722 4.58213E-09 4.59402E-08 2.80565E-25
 -1       723 4.69501E-09 4.84166E-08 2.87477E-25
 -1       724 4.81460E-09 5.12048E-08 2.94799E-25
 -1       725 4.94122E-09 5.43434E-08 3.02552E-25
 -1       726 5.07346E-09 5.78773E-08 3.10649E-25
 -1       727 5.20749E-09 6.18602E-08 3.18857E-25
 -1       728 5.33661E-09 6.63573E-08 3.26762E-25
 -1       729 5.45103E-09 7.14488E-08 3.33769E-25
 -1       730 5.53875E-09 7.72340E-08 3.39139E-25
 -1       731 5.58776E-09 8.38346E-08 3.42140E-25
 -1       801-2.55364E-10 2.24385E-08-1.56360E-26
 -1       802 5.90788E-11 2.31652E-08 3.61741E-27
 -1       803 3.37467E-10 2.37772E-08 2.06632E-26
 -1       804 5.86432E-10 2.43116E-08 3.59074E-26
 -1       805 8.10067E-10 2.47959E-08 4.96006E-26
 -1       806 1.01103E-09 2.52517E-08 6.19056E-26
 -1       807 1.19109E-09 2.56965E-08 7.29307E-26
 -1       808 1.35145E-09 2.61453E-08 8.27496E-26
 -1       809 1.49296E-09 2.66113E-08 9.14145E-26
 -1       810 1.61629E-09 2.71067E-08 9.89662E-26
 -1       811 1.72208E-09 2.76435E-08 1.05443E-25
 -1       812 1.81100E-09 2.82334E-08 1.10888E-25
 -1       813 1.88391E-09 2.88884E-08 1.15352E-25
 -1       814 1.94189E-09 2.96212E-08 1.18903E-25
 -1       815 1.98630E-09 3.04448E-08 1.21622E-25
 -1       816 2.01882E-09 3.13735E-08 1.23613E-25
 -1       817 2.04151E-09 3.24222E-08 1.25002E-25
 -1       818 2.05681E-09 3.36074E-08 1.25939E-25
 -1       819 2.06752E-09 3.49468E-08 1.26595E-25
 -1       820 2.07681E-09 3.64598E-08 1.27164E-25
 -1       821 2.08816E-09 3.81681E-08 1.27859E-25
 -1       822 2.10524E-09 4.00956E-08 1.28905E-25
 -1       823 2.13178E-09 4.22695E-08 1.30530E-25
 -1       824 2.17142E-09 4.47206E-08 1.32956E-25
 -1       825 2.22742E-09 4.74847E-08 1.36385E-25
 -1       826 2.30250E-09 5.06037E-08 1.40983E-25
 -1       827 2.39865E-09 5.41270E-08 1.46870E-25
 -1       828 2.51714E-09 5.81140E-08 1.54125E-25
 -1       829 2.65886E-09 6.26358E-08 1.62803E-25
 -1       830 2.82529E-09 6.77779E-08 1.72993E-25
 -1       831 3.02023E-09 7.36412E-08 1.84930E-25
 -1       901-1.12622E-09 1.89947E-08-6.89585E-26
 -1       902-8.20905E-10 1.96358E-08-5.02643E-26
 -1       903-5.63875E-10 2.01774E-08-3.45262E-26
 -1       904-3.45514E-10 2.06508E-08-2.11559E-26
 -1       905-1.59985E-10 2.10795E-08-9.79593E-27
 -1       906-3.52946E-12 2.14822E-08-2.16110E-28
 -1       907 1.26394E-10 2.18741E-08 7.73914E-27
 -1       908 2.31588E-10 2.22681E-08 1.41802E-26
 -1       909 3.13417E-10 2.26759E-08 1.91906E-26
 -1       910 3.73008E-10 2.31081E-08 2.28394E-26
 -1       911 4.11411E-10 2.35749E-08 2.51908E-26
 -1       912 4.29716E-10 2.40867E-08 2.63116E-26
 -1       913 4.29156E-10 2.46538E-08 2.62774E-26
 -1       914 4.11188E-10 2.52868E-08 2.51772E-26
 -1       915 3.77566E-10 2.59972E-08 2.31185E-26
 -1       916 3.30397E-10 2.67970E-08 2.02303E-26
 -1       917 2.72193E-10 2.76992E-08 1.66665E-26
 -1       918 2.05913E-10 2.87178E-08 1.26081E-26
 -1       919 1.34992E-10 2.98684E-08 8.26560E-27
 -1       920 6.33564E-11 3.11679E-08 3.87933E-27
 -1       921-4.56882E-12 3.26353E-08-2.79750E-28
 -1       922-6.38742E-11 3.42918E-08-3.91104E-27
 -1       923-1.09185E-10 3.61616E-08-6.68544E-27
 -1       924-1.34688E-10 3.82723E-08-8.24701E-27
 -1       925-1.34143E-10 4.06561E-08-8.21362E-27
 -1       926-1.00844E-10 4.33501E-08-6.17471E-27
 -1       927-2.74901E-11 4.63986E-08-1.68323E-27
 -1       928 9.41196E-11 4.98534E-08 5.76297E-27
 -1       929 2.73651E-10 5.37760E-08 1.67557E-26
 -1       930 5.23144E-10 5.82384E-08 3.20323E-26
 -1       931 8.58322E-10 6.33245E-08 5.25554E-26
 -1      1001-1.88789E-09 1.56584E-08-1.15596E-25
 -1      1002-1.59063E-09 1.62050E-08-9.73949E-26
 -1      1003-1.35198E-09 1.66680E-08-8.27824E-26
 -1      1004-1.15979E-09 1.70731E-08-7.10141E-26
 -1      1005-1.00668E-09 1.74401E-08-6.16392E-26
 -1      1006-8.87932E-10 1.77842E-08-5.43683E-26
 -1      1007-8.00348E-10 1.81184E-08-4.90056E-26
 -1      1008-7.41631E-10 1.84535E-08-4.54103E-26
 -1      1009-7.10005E-10 1.87994E-08-4.34738E-26
 -1      1010-7.03983E-10 1.91650E-08-4.31051E-26
 -1      1011-7.22180E-10 1.95590E-08-4.42193E-26
 -1      1012-7.63187E-10 1.99899E-08-4.67302E-26
 -1      1013-8.25452E-10 2.04664E-08-5.05427E-26
 -1      1014-9.07201E-10 2.09975E-08-5.55482E-26
 -1      1015-1.00634E-09 2.15927E-08-6.16188E-26
 -1      1016-1.12041E-09 2.22619E-08-6.86033E-26
 -1      1017-1.24648E-09 2.30162E-08-7.63226E-26
 -1      1018-1.38112E-09 2.38672E-08-8.45664E-26
 -1      1019-1.52031E-09 2.48281E-08-9.30889E-26
 -1      1020-1.65940E-09 2.59133E-08-1.01606E-25
 -1      1021-1.79305E-09 2.71389E-08-1.09789E-25
 -1      1022-1.91516E-09 2.85230E-08-1.17266E-25
 -1      1023-2.01878E-09 3.00865E-08-1.23610E-25
 -1      1024-2.09602E-09 3.18531E-08-1.28340E-25
 -1      1025-2.13790E-09 3.38504E-08-1.30904E-25
 -1      1026-2.13415E-09 3.61105E-08-1.30675E-25
 -1      1027-2.07287E-09 3.86709E-08-1.26923E-25
 -1      1028-1.94009E-09 4.15756E-08-1.18792E-25
 -1      1029-1.71907E-09 4.48759E-08-1.05260E-25
 -1      1030-1.38953E-09 4.86313E-08-8.50813E-26
 -1      1031-9.26497E-10 5.29104E-08-5.67297E-26
 -1      1101-2.52787E-09 1.24138E-08-1.54782E-25
 -1      1102-2.23743E-09 1.28588E-08-1.36999E-25
 -1      1103-2.01404E-09 1.32367E-08-1.23320E-25
 -1      1104-1.84344E-09 1.35677E-08-1.12874E-25
 -1      1105-1.71700E-09 1.38676E-08-1.05132E-25
 -1      1106-1.62917E-09 1.41486E-08-9.97548E-26
 -1      1107-1.57622E-09 1.44210E-08-9.65124E-26
 -1      1108-1.55544E-09 1.46936E-08-9.52398E-26
 -1      1109-1.56473E-09 1.49743E-08-9.58087E-26
 -1      1110-1.60232E-09 1.52704E-08-9.81105E-26
 -1      1111-1.66657E-09 1.55889E-08-1.02045E-25
 -1      1112-1.75582E-09 1.59366E-08-1.07510E-25
 -1      1113-1.86827E-09 1.63204E-08-1.14395E-25
 -1      1114-2.00188E-09 1.67477E-08-1.22576E-25
 -1      1115-2.15430E-09 1.72259E-08-1.31908E-25
 -1      1116-2.32273E-09 1.77632E-08-1.42222E-25
 -1      1117-2.50391E-09 1.83683E-08-1.53315E-25
 -1      1118-2.69398E-09 1.90507E-08-1.64953E-25
 -1      1119-2.88841E-09 1.98210E-08-1.76858E-25
 -1      1120-3.08191E-09 2.06908E-08-1.88706E-25
 -1      1121-3.26830E-09 2.16734E-08-2.00119E-25
 -1      1122-3.44040E-09 2.27835E-08-2.10657E-25
 -1      1123-3.58985E-09 2.40381E-08-2.19808E-25
 -1      1124-3.70695E-09 2.54568E-08-2.26978E-25
 -1      1125-3.78036E-09 2.70621E-08-2.31472E-25
 -1      1126-3.79678E-09 2.88802E-08-2.32478E-25
 -1      1127-3.74057E-09 3.09416E-08-2.29036E-25
 -1      1128-3.59308E-09 3.32818E-08-2.20006E-25
 -1      1129-3.33210E-09 3.59420E-08-2.04025E-25
 -1      1130-2.93089E-09 3.89695E-08-1.79459E-25
 -1      1131-2.35734E-09 4.24188E-08-1.44340E-25
 -1      1201-3.03602E-09 9.24388E-09-1.85897E-25
 -1      1202-2.75104E-09 9.58206E-09-1.68447E-25
 -1      1203-2.53965E-09 9.86968E-09-1.55504E-25
 -1      1204-2.38597E-09 1.01220E-08-1.46094E-25
 -1      1205-2.28036E-09 1.03505E-08-1.39627E-25
 -1      1206-2.21665E-09 1.05646E-08-1.35726E-25
 -1      1207-2.19064E-09 1.07719E-08-1.34134E-25
 -1      1208-2.19932E-09 1.09790E-08-1.34665E-25
 -1      1209-2.24036E-09 1.11919E-08-1.37178E-25
 -1      1210-2.31176E-09 1.14162E-08-1.41550E-25
 -1      1211-2.41169E-09 1.16570E-08-1.47669E-25
 -1      1212-2.53830E-09 1.19195E-08-1.55421E-25
 -1      1213-2.68961E-09 1.22089E-08-1.64685E-25
 -1      1214-2.86336E-09 1.25308E-08-1.75325E-25
 -1      1215-3.05699E-09 1.28907E-08-1.87181E-25
 -1      1216-3.26748E-09 1.32948E-08-2.00069E-25
 -1      1217-3.49125E-09 1.37497E-08-2.13770E-25
 -1      1218-3.72410E-09 1.42624E-08-2.28028E-25
 -1      1219-3.96109E-09 1.48411E-08-2.42539E-25
 -1      1220-4.19637E-09 1.54946E-08-2.56945E-25
 -1      1221-4.42307E-09 1.62329E-08-2.70826E-25
 -1      1222-4.63310E-09 1.70673E-08-2.83686E-25
 -1      1223-4.81697E-09 1.80107E-08-2.94945E-25
 -1      1224-4.96346E-09 1.90780E-08-3.03914E-25
 -1      1225-5.05936E-09 2.02864E-08-3.09786E-25
 -1      1226-5.08900E-09 2.16559E-08-3.11601E-25
 -1      1227-5.03378E-09 2.32096E-08-3.08220E-25
 -1      1228-4.87156E-09 2.49742E-08-2.98287E-25
 -1      1229-4.57593E-09 2.69807E-08-2.80185E-25
 -1      1230-4.11536E-09 2.92646E-08-2.51985E-25
 -1      1231-3.45232E-09 3.18664E-08-2.11386E-25
 -1      1301-3.40453E-09 6.13072E-09-2.08461E-25
 -1      1302-3.12354E-09 6.35822E-09-1.91255E-25
 -1      1303-2.92080E-09 6.55196E-09-1.78841E-25
 -1      1304-2.77927E-09 6.72202E-09-1.70175E-25
 -1      1305-2.68859E-09 6.87612E-09-1.64623E-25
 -1      1306-2.64213E-09 7.02041E-09-1.61778E-25
 -1      1307-2.63538E-09 7.16004E-09-1.61365E-25
 -1      1308-2.66511E-09 7.29943E-09-1.63185E-25
 -1      1309-2.72878E-09 7.44255E-09-1.67084E-25
 -1      1310-2.82428E-09 7.59308E-09-1.72932E-25
 -1      1311-2.94963E-09 7.75453E-09-1.80607E-25
 -1      1312-3.10284E-09 7.93038E-09-1.89988E-25
 -1      1313-3.28181E-09 8.12411E-09-2.00946E-25
 -1      1314-3.48413E-09 8.33935E-09-2.13335E-25
 -1      1315-3.70709E-09 8.57991E-09-2.26986E-25
 -1      1316-3.94748E-09 8.84986E-09-2.41705E-25
 -1      1317-4.20152E-09 9.15359E-09-2.57260E-25
 -1      1318-4.46475E-09 9.49594E-09-2.73378E-25
 -1      1319-4.73190E-09 9.88224E-09-2.89736E-25
 -1      1320-4.99671E-09 1.03185E-08-3.05950E-25
 -1      1321-5.25180E-09 1.08113E-08-3.21569E-25
 -1      1322-5.48840E-09 1.13685E-08-3.36057E-25
 -1      1323-5.69616E-09 1.19986E-08-3.48778E-25
 -1      1324-5.86277E-09 1.27118E-08-3.58979E-25
 -1      1325-5.97363E-09 1.35197E-08-3.65767E-25
 -1      1326-6.01137E-09 1.44355E-08-3.68078E-25
 -1      1327-5.95533E-09 1.54749E-08-3.64647E-25
 -1      1328-5.78087E-09 1.66558E-08-3.53965E-25
 -1      1329-5.45867E-09 1.79988E-08-3.34236E-25
 -1      1330-4.95385E-09 1.95276E-08-3.03326E-25
 -1      1331-4.22504E-09 2.12692E-08-2.58700E-25
 -1      1401-3.62785E-09 3.05576E-09-2.22135E-25
 -1      1402-3.34928E-09 3.17011E-09-2.05078E-25
 -1      1403-3.15176E-09 3.26758E-09-1.92983E-25
 -1      1404-3.01754E-09 3.35316E-09-1.84765E-25
 -1      1405-2.93585E-09 3.43073E-09-1.79763E-25
 -1      1406-2.89976E-09 3.50335E-09-1.77553E-25
 -1      1407-2.90458E-09 3.57360E-09-1.77848E-25
 -1      1408-2.94692E-09 3.64368E-09-1.80441E-25
 -1      1409-3.02417E-09 3.71559E-09-1.85171E-25
 -1      1410-3.13411E-09 3.79117E-09-1.91902E-25
 -1      1411-3.27468E-09 3.87218E-09-2.00510E-25
 -1      1412-3.44383E-09 3.96036E-09-2.10867E-25
 -1      1413-3.63935E-09 4.05745E-09-2.22838E-25
 -1      1414-3.85878E-09 4.16528E-09-2.36274E-25
 -1      1415-4.09929E-09 4.28574E-09-2.51001E-25
 -1      1416-4.35756E-09 4.42088E-09-2.66815E-25
 -1      1417-4.62970E-09 4.57290E-09-2.83478E-25
 -1      1418-4.91108E-09 4.74423E-09-3.00707E-25
 -1      1419-5.19623E-09 4.93754E-09-3.18167E-25
 -1      1420-5.47863E-09 5.15583E-09-3.35458E-25
 -1      1421-5.75058E-09 5.40248E-09-3.52110E-25
 -1      1422-6.00291E-09 5.68134E-09-3.67560E-25
 -1      1423-6.22472E-09 5.99680E-09-3.81141E-25
 -1      1424-6.40304E-09 6.35389E-09-3.92060E-25
 -1      1425-6.52243E-09 6.75847E-09-3.99371E-25
 -1      1426-6.56452E-09 7.21726E-09-4.01948E-25
 -1      1427-6.50738E-09 7.73805E-09-3.98449E-25
 -1      1428-6.32491E-09 8.32982E-09-3.87276E-25
 -1      1429-5.98606E-09 9.00291E-09-3.66528E-25
 -1      1430-5.45396E-09 9.76914E-09-3.33948E-25
 -1      1431-4.68496E-09 1.06420E-08-2.86862E-25
 -1      1501-3.70266E-09 0.00000E+00-2.26715E-25
 -1      1502-3.42490E-09 0.00000E+00-2.09708E-25
 -1      1503-3.22912E-09 0.00000E+00-1.97720E-25
 -1      1504-3.09735E-09 0.00000E+00-1.89652E-25
 -1      1505-3.01866E-09 0.00000E+00-1.84834E-25
 -1      1506-2.98603E-09 0.00000E+00-1.82835E-25
 -1      1507-2.99470E-09 0.00000E+00-1.83366E-25
 -1      1508-3.04125E-09 0.00000E+00-1.86217E-25
 -1      1509-3.12302E-09 0.00000E+00-1.91224E-25
 -1      1510-3.23777E-09 0.00000E+00-1.98250E-25
 -1      1511-3.38341E-09 0.00000E+00-2.07167E-25
 -1      1512-3.55787E-09 0.00000E+00-2.17849E-25
 -1      1513-3.75890E-09 0.00000E+00-2.30159E-25
 -1      1514-3.98403E-09 0.00000E+00-2.43943E-25
 -1      1515-4.23038E-09 0.00000E+00-2.59027E-25
 -1      1516-4.49461E-09 0.00000E+00-2.75206E-25
 -1      1517-4.77277E-09 0.00000E+00-2.92238E-25
 -1      1518-5.06018E-09 0.00000E+00-3.09837E-25
 -1      1519-5.35131E-09 0.00000E+00-3.27662E-25
 -1      1520-5.63956E-09 0.00000E+00-3.45312E-25
 -1      1521-5.91710E-09 0.00000E+00-3.62306E-25
 -1      1522-6.17463E-09 0.00000E+00-3.78075E-25
 -1      1523-6.40107E-09 0.00000E+00-3.91940E-25
 -1      1524-6.58324E-09 0.00000E+00-4.03094E-25
 -1      1525-6.70541E-09 0.00000E+00-4.10574E-25
 -1      1526-6.74885E-09 0.00000E+00-4.13234E-25
 -1      1527-6.69124E-09 0.00000E+00-4.09707E-25
 -1      1528-6.50599E-09 0.00000E+00-3.98364E-25
 -1      1529-6.16148E-09 0.00000E+00-3.77269E-25
 -1      1530-5.62017E-09 0.00000E+00-3.44125E-25
 -1      1531-4.83765E-09 0.00000E+00-2.96211E-25
 -3
    1PSTEP                        10           5           1          
  100CL  105 5.00000E-01         496                     0    5           1
 -4  STRESS      6    1
 -5  SXX         1    4    1    1
 -5  SYY         1    4    2    2
 -5  SZZ         1    4    3    3
 -5  SXY         1    4    1    2
 -5  SYZ         1    4    2    3
 -5  SZX         1    4    3    1
 -1         1 1.78761E+04-2.31593E+05 1.28461E+05-2.38253E+03-8.06129E-10 2.00821E-10
 -1         2 1.86101E+04-2.37100E+05 1.06579E+05-1.99998E+03-1.22299E-09 1.41724E-10
 -1         3 3.20677E+04-2.35881E+05 9.79286E+04-3.48129E+03 1.88585E-09 1.32278E-10
 -1         4 4.32024E+04-2.35170E+05 9.27853E+04-5.06143E+03-9.34361E-10-1.78171E-10
 -1         5 5.36610E+04-2.34471E+05 9.03006E+04-6.59309E+03 1.33593E-09 3.29239E-10
 -1         6 6.41344E+04-2.33580E+05 8.98852E+04-7.98670E+03 2.47235E-10-3.31390E-11
 -1         7 7.48981E+04-2.32443E+05 9.11058E+04-9.20914E+03 1.12213E-10-2.43799E-10
 -1         8 8.60509E+04-2.31063E+05 9.36417E+04-1.02559E+04-1.27091E-09-3.83561E-10
 -1         9 9.76095E+04-2.29463E+05 9.72503E+04-1.11304E+04 1.39471E-09 9.61078E-11
 -1        10 1.09548E+05-2.27667E+05 1.01743E+05-1.18342E+04 2.94592E-11 2.79901E-11
 -1        11 1.21811E+05-2.25704E+05 1.06966E+05-1.23633E+04 2.38326E-10 4.76703E-10
 -1        12 1.34321E+05-2.23598E+05 1.12788E+05-1.27064E+04-6.57547E-10 2.89415E-10
 -1        13 1.46969E+05-2.21379E+05 1.19088E+05-1.28440E+04 7.25559E-10-3.46726E-11
 -1        14 1.59619E+05-2.19080E+05 1.25748E+05-1.27482E+04-4.69057E-10 2.97567E-11
 -1        15 1.72090E+05-2.16738E+05 1.32642E+05-1.23820E+04 6.75565E-10 9.57768E-12
 -1        16 1.84154E+05-2.14406E+05 1.39631E+05-1.16994E+04 2.50759E-10 2.15576E-10
 -1        17 1.95523E+05-2.12146E+05 1.46557E+05-1.06454E+04 4.11349E-10-3.45184E-11
 -1        18 2.05836E+05-2.10041E+05 1.53229E+05-9.15548E+03-1.44716E-10-3.89112E-10
 -1        19 2.14642E+05-2.08199E+05 1.59421E+05-7.15708E+03 1.36895E-10-8.18840E-11
 -1        20 2.21390E+05-2.06752E+05 1.64864E+05-4.57201E+03-1.31495E-09-2.28261E-10
 -1        21 2.25409E+05-2.05865E+05 1.69233E+05-1.32151E+03 8.34835E-10-4.66258E-10
 -1        22 2.25899E+05-2.05730E+05 1.72145E+05 2.66292E+03-7.29934E-10 1.92928E-11
 -1        23 2.21932E+05-2.06563E+05 1.73163E+05 7.41979E+03 9.18817E-10-1.23519E-10
 -1        24 2.12470E+05-2.08567E+05 1.71803E+05 1.29201E+04-1.78591E-09-2.81215E-10
 -1        25 1.96441E+05-2.11872E+05 1.67581E+05 1.89977E+04 1.42452E-09 7.57330E-10
 -1        26 1.72912E+05-2.16382E+05 1.60107E+05 2.52181E+04 9.91984E-10 4.64243E-10
 -1        27 1.41460E+05-2.21468E+05 1.49298E+05 3.06256E+04 1.63765E-10-2.90580E-11
 -1        28 1.02947E+05-2.25310E+05 1.35821E+05 3.32548E+04 5.41367E-10-1.23345E-10
 -1        29 6.11286E+04-2.23562E+05 1.22001E+05 2.92354E+04-1.35518E-09-2.46562E-10
 -1        30 2.70540E+04-2.06437E+05 1.14081E+05 1.38087E+04 3.20533E-10 6.61843E-10
 -1        31 2.42361E+04-1.66957E+05 1.21467E+05 3.44685E+03 1.38454E-10 7.74581E-12
 -1       101 7.12107E+03-2.48002E+05 5.65584E+04-6.66146E+02-6.93928E-10-5.34188E-11
 -1       102 8.11696E+03-2.48692E+05 4.76923E+04-2.71136E+03 6.62571E-10-1.97605E-11
 -1       103 1.35809E+04-2.48159E+05 4.34368E+04-5.96452E+03-1.64644E-09-1.63633E-10
 -1       104 1.81983E+04-2.48318E+05 4.07311E+04-8.82232E+03 2.60030E-10 7.65669E-11
 -1       105 2.20950E+04-2.48919E+05 3.89772E+04-1.13023E+04-6.46206E-10-2.08072E-10
 -1       106 2.54379E+04-2.49812E+05 3.78426E+04-1.34364E+04-2.64462E-10 4.21146E-11
 -1       107 2.83749E+04-2.50910E+05 3.71312E+04-1.52545E+04-4.70290E-10-4.54922E-11
 -1       108 3.10075E+04-2.52168E+05 3.67161E+04-1.67757E+04 4.49286E-10 4.84363E-11
 -1       109 3.33926E+04-2.53565E+05 3.65078E+04-1.80090E+04 1.82956E-10 1.23959E-10
 -1       110 3.55505E+04-2.55100E+05 3.64372E+04-1.89535E+04 7.86476E-11-1.19269E-10
 -1       111 3.74738E+04-2.56776E+05 3.64467E+04-1.95972E+04-3.46751E-10-1.42460E-10
 -1       112 3.91340E+04-2.58606E+05 3.64853E+04-1.99177E+04-3.70309E-11-1.26975E-10
 -1       113 4.04862E+04-2.60604E+05 3.65062E+04-1.98816E+04-5.79471E-11-2.47035E-11
 -1       114 4.14738E+04-2.62783E+05 3.64650E+04-1.94448E+04 1.61723E-10 1.13592E-11
 -1       115 4.20314E+04-2.65156E+05 3.63194E+04-1.85523E+04-7.99900E-10-1.28553E-10
 -1       116 4.20895E+04-2.67735E+05 3.60296E+04-1.71388E+04 3.49893E-11-5.21310E-11
 -1       117 4.15782E+04-2.70522E+05 3.55594E+04-1.51291E+04 2.42818E-10 3.93347E-11
 -1       118 4.04337E+04-2.73515E+05 3.48778E+04-1.24395E+04-4.27542E-10-1.76613E-10
 -1       119 3.86060E+04-2.76695E+05 3.39628E+04-8.98046E+03 8.64607E-10 2.68447E-10
 -1       120 3.60700E+04-2.80023E+05 3.28056E+04-4.66068E+03 3.42754E-11-1.57962E-11
 -1       121 3.28392E+04-2.83427E+05 3.14169E+04 6.05091E+02-9.43230E-11-5.16227E-11
 -1       122 2.89836E+04-2.86791E+05 2.98355E+04 6.88361E+03-8.52984E-11-2.38456E-11
 -1       123 2.46495E+04-2.89925E+05 2.81391E+04 1.42029E+04 1.57075E-10-6.22131E-12
 -1       124 2.00786E+04-2.92530E+05 2.64570E+04 2.25195E+04 4.42939E-10-4.45472E-11
 -1       125 1.56155E+04-2.94141E+05 2.49828E+04 3.16659E+04 5.01421E-11-1.12697E-10
 -1       126 1.16811E+04-2.94028E+05 2.39842E+04 4.12669E+04-1.63456E-10-6.56827E-11
 -1       127 8.66109E+03-2.91029E+05 2.37977E+04 5.06039E+04 3.63258E-10-7.37855E-12
 -1       128 6.60175E+03-2.83250E+05 2.47909E+04 5.83792E+04-7.56673E-12-1.60659E-10
 -1       129 4.56154E+03-2.67471E+05 2.72656E+04 6.22112E+04-5.08918E-10 4.13277E-11
 -1       130 1.01630E+03-2.38810E+05 3.16982E+04 5.47174E+04 5.65558E-11-3.25403E-10
 -1       131 8.09433E+03-1.71367E+05 4.33078E+04 4.05987E+04 1.26987E-09 2.19874E-10
 -1       201 2.96683E+03-2.40226E+05 3.79171E+04-1.41446E+03-4.95449E-10 1.40622E-10
 -1       202 5.82159E+03-2.37902E+05 3.30873E+04-4.18130E+03-3.25173E-10 2.47343E-11
 -1       203 1.07353E+04-2.37231E+05 3.03947E+04-8.12796E+03 2.85823E-10 6.75768E-11
 -1       204 1.40114E+04-2.37397E+05 2.85963E+04-1.15495E+04-7.37853E-10-5.62798E-11
 -1       205 1.64547E+04-2.37948E+05 2.73786E+04-1.44548E+04 3.98724E-10-4.94761E-11
 -1       206 1.83979E+04-2.38673E+05 2.65523E+04-1.69520E+04-1.83846E-10-8.36754E-11
 -1       207 2.00050E+04-2.39482E+05 2.59963E+04-1.90895E+04 2.67985E-10 8.03117E-11
 -1       208 2.13702E+04-2.40342E+05 2.56300E+04-2.08892E+04 7.81880E-11 5.10759E-11
 -1       209 2.25489E+04-2.41252E+05 2.53977E+04-2.23559E+04 1.56273E-11 8.32344E-11
 -1       210 2.35707E+04-2.42229E+05 2.52583E+04-2.34811E+04 2.19513E-10-3.96033E-11
 -1       211 2.44478E+04-2.43298E+05 2.51801E+04-2.42452E+04 2.55050E-10 4.37663E-11
 -1       212 2.51796E+04-2.44491E+05 2.51371E+04-2.46180E+04 5.18118E-11 4.66525E-11
 -1       213 2.57565E+04-2.45843E+05 2.51073E+04-2.45581E+04-1.43555E-10-3.46871E-11
 -1       214 2.61621E+04-2.47394E+05 2.50706E+04-2.40137E+04-2.11564E-10-4.48137E-11
 -1       215 2.63761E+04-2.49184E+05 2.50087E+04-2.29227E+04 8.09057E-11-2.00264E-11
 -1       216 2.63759E+04-2.51257E+05 2.49044E+04-2.12130E+04-4.77533E-10-1.20717E-11
 -1       217 2.61387E+04-2.53655E+05 2.47416E+04-1.88042E+04 2.33271E-10 6.91432E-11
 -1       218 2.56444E+04-2.56420E+05 2.45055E+04-1.56092E+04 2.40856E-10-3.23692E-11
 -1       219 2.48774E+04-2.59591E+05 2.41830E+04-1.15380E+04 1.06614E-10-3.40564E-11
 -1       220 2.38304E+04-2.63190E+05 2.37642E+04-6.50306E+03-2.75179E-10 4.75150E-11
 -1       221 2.25068E+04-2.67222E+05 2.32434E+04-4.28185E+02 4.46763E-10 1.27261E-10
 -1       222 2.09233E+04-2.71645E+05 2.26215E+04 6.73888E+03-6.01446E-10-1.22468E-10
 -1       223 1.91091E+04-2.76346E+05 2.19095E+04 1.50075E+04 1.95323E-10 6.19673E-11
 -1       224 1.70996E+04-2.81084E+05 2.11327E+04 2.43172E+04 8.57892E-10 1.76767E-10
 -1       225 1.49147E+04-2.85394E+05 2.03373E+04 3.45012E+04 1.36036E-10-4.17744E-11
 -1       226 1.25071E+04-2.88428E+05 1.95997E+04 4.52390E+04 1.73073E-10-1.30251E-11
 -1       227 9.64226E+03-2.88657E+05 1.90392E+04 5.60029E+04 5.77714E-11 6.47661E-11
 -1       228 5.61364E+03-2.83307E+05 1.88361E+04 6.60212E+04-7.34919E-11 4.92979E-11
 -1       229-1.48334E+03-2.67240E+05 1.92487E+04 7.42608E+04 3.16045E-11 1.45615E-11
 -1       230-1.92389E+04-2.28781E+05 2.05288E+04 8.02450E+04-5.19865E-10 8.47060E-11
 -1       231-2.75339E+04-1.57202E+05 2.52355E+04 7.61787E+04 1.60643E-10-2.21794E-10
 -1       301 2.17107E+03-2.34165E+05 2.77035E+04-2.76152E+03 1.43446E-10-1.16217E-10
 -1       302 3.68512E+03-2.32294E+05 2.42315E+04-4.93672E+03 4.35971E-10 9.55747E-11
 -1       303 6.65021E+03-2.32090E+05 2.20783E+04-9.07073E+03-9.75534E-10-1.18269E-10
 -1       304 9.08067E+03-2.32577E+05 2.06542E+04-1.23538E+04 1.03849E-11 3.98918E-11
 -1       305 1.09022E+04-2.33413E+05 1.96701E+04-1.51620E+04 5.51817E-10 8.59504E-11
 -1       306 1.22835E+04-2.34425E+05 1.89720E+04-1.75771E+04-7.25284E-11-4.27899E-11
 -1       307 1.33464E+04-2.35536E+05 1.84649E+04-1.96468E+04-3.10488E-10-7.40855E-11
 -1       308 1.41698E+04-2.36720E+05 1.80863E+04-2.13900E+04-4.57613E-11-8.66773E-11
 -1       309 1.48046E+04-2.37980E+05 1.77928E+04-2.28080E+04-2.28884E-10 2.04849E-11
 -1       310 1.52824E+04-2.39338E+05 1.75529E+04-2.38897E+04-1.06794E-10-1.46623E-10
 -1       311 1.56213E+04-2.40823E+05 1.73425E+04-2.46136E+04 3.79003E-10 2.87720E-11
 -1       312 1.58301E+04-2.42474E+05 1.71422E+04-2.49487E+04 1.89466E-10 2.30878E-11
 -1       313 1.59107E+04-2.44334E+05 1.69355E+04-2.48549E+04 2.52796E-10 3.71732E-11
 -1       314 1.58603E+04-2.46447E+05 1.67080E+04-2.42831E+04 7.47970E-11 2.53775E-11
 -1       315 1.56734E+04-2.48863E+05 1.64470E+04-2.31758E+04-1.91049E-10-8.62877E-11
 -1       316 1.53434E+04-2.51630E+05 1.61405E+04-2.14675E+04 2.91657E-10 6.60117E-11
 -1       317 1.48637E+04-2.54796E+05 1.57780E+04-1.90859E+04-3.51210E-10-1.26161E-10
 -1       318 1.42291E+04-2.58408E+05 1.53500E+04-1.59537E+04-2.10843E-10-3.40019E-12
 -1       319 1.34367E+04-2.62504E+05 1.48489E+04-1.19915E+04-1.23630E-10-6.87196E-11
 -1       320 1.24858E+04-2.67107E+05 1.42693E+04-7.12213E+03 5.29458E-10 4.51994E-11
 -1       321 1.13768E+04-2.72215E+05 1.36092E+04-1.27662E+03 2.05240E-10 1.98189E-11
 -1       322 1.01072E+04-2.77780E+05 1.28708E+04 5.59737E+03 1.25512E-10 6.96629E-11
 -1       323 8.66228E+03-2.83680E+05 1.20625E+04 1.35249E+04-6.70152E-10-1.95611E-10
 -1       324 6.99635E+03-2.89675E+05 1.12004E+04 2.24907E+04-3.56282E-10-5.07806E-11
 -1       325 4.99665E+03-2.95329E+05 1.03104E+04 3.24270E+04-2.16293E-10 1.15038E-10
 -1       326 2.41430E+03-2.99892E+05 9.43004E+03 4.32080E+04 1.50325E-10 7.00811E-11
 -1       327-1.26706E+03-3.02103E+05 8.60948E+03 5.46711E+04-5.97479E-12-2.16581E-11
 -1       328-7.08304E+03-2.99852E+05 7.90876E+03 6.67144E+04 5.12151E-10-3.54696E-12
 -1       329-1.71513E+04-2.89535E+05 7.38671E+03 7.96636E+04 5.11012E-10 8.04723E-12
 -1       330-3.46879E+04-2.64878E+05 7.17572E+03 9.54032E+04 2.47540E-10-5.43477E-11
 -1       331-4.51247E+04-2.41312E+05 6.91623E+03 1.04810E+05-2.31188E-10 1.28378E-10
 -1       401 1.27904E+03-2.26477E+05 1.71746E+04-2.85956E+03 4.63099E-10-3.67704E-11
 -1       402 2.06650E+03-2.26521E+05 1.49529E+04-5.26127E+03-2.48898E-10 5.73374E-12
 -1       403 3.69101E+03-2.26849E+05 1.35850E+04-9.48447E+03-5.88452E-11 3.31308E-11
 -1       404 4.94055E+03-2.27711E+05 1.26109E+04-1.27583E+04-2.61522E-10-3.71479E-11
 -1       405 5.91817E+03-2.28851E+05 1.19039E+04-1.54612E+04 1.01485E-10-3.44939E-11
 -1       406 6.62673E+03-2.30153E+05 1.13668E+04-1.77616E+04-6.11074E-10-1.01678E-10
 -1       407 7.10511E+03-2.31562E+05 1.09377E+04-1.97228E+04 1.48632E-10 1.98133E-11
 -1       408 7.39190E+03-2.33063E+05 1.05749E+04-2.13696E+04 1.15903E-10-8.50825E-12
 -1       409 7.51838E+03-2.34667E+05 1.02495E+04-2.27050E+04-5.01953E-10-8.96867E-11
 -1       410 7.50805E+03-2.36397E+05 9.94025E+03-2.37181E+04 2.07049E-10 2.19276E-11
 -1       411 7.37785E+03-2.38291E+05 9.63068E+03-2.43876E+04-1.82540E-10-2.44794E-11
 -1       412 7.13957E+03-2.40392E+05 9.30771E+03-2.46833E+04 9.99541E-11 6.85359E-11
 -1       413 6.80121E+03-2.42746E+05 8.96034E+03-2.45671E+04-3.68087E-10-6.99466E-11
 -1       414 6.36814E+03-2.45405E+05 8.57903E+03-2.39931E+04 9.18678E-11 1.28605E-11
 -1       415 5.84422E+03-2.48422E+05 8.15534E+03-2.29084E+04-9.32616E-11 9.79489E-11
 -1       416 5.23261E+03-2.51852E+05 7.68177E+03-2.12531E+04-4.63213E-11-1.35924E-10
 -1       417 4.53628E+03-2.55748E+05 7.15169E+03-1.89615E+04-4.52715E-11 1.65213E-10
 -1       418 3.75815E+03-2.60159E+05 6.55953E+03-1.59631E+04-1.98565E-10-1.22747E-10
 -1       419 2.90037E+03-2.65125E+05 5.90094E+03-1.21845E+04 2.18783E-10 9.53079E-11
 -1       420 1.96253E+03-2.70672E+05 5.17317E+03-7.55180E+03 3.56900E-11 5.30479E-11
 -1       421 9.37636E+02-2.76798E+05 4.37539E+03-1.99337E+03 2.17020E-10-1.13927E-11
 -1       422-1.95017E+02-2.83460E+05 3.50920E+03 4.55646E+03 3.33722E-10 9.09906E-12
 -1       423-1.48255E+03-2.90546E+05 2.57894E+03 1.21546E+04-2.40954E-10 1.01064E-10
 -1       424-3.01991E+03-2.97846E+05 1.59191E+03 2.08488E+04 2.74245E-11-1.13159E-10
 -1       425-4.98519E+03-3.04992E+05 5.58053E+02 3.06835E+04 8.28238E-11 5.94889E-12
 -1       426-7.69666E+03-3.11387E+05-5.11374E+02 4.17231E+04-4.54921E-10 1.27245E-12
 -1       427-1.17013E+04-3.16097E+05-1.60691E+03 5.41117E+04 6.05399E-10-2.95230E-11
 -1       428-1.79035E+04-3.17701E+05-2.72701E+03 6.82194E+04-3.07439E-10 9.16402E-11
 -1       429-2.76480E+04-3.14156E+05-3.88336E+03 8.49663E+04 4.79488E-11-3.41259E-11
 -1       430-4.27022E+04-3.03008E+05-5.13066E+03 1.06521E+05 5.58813E-10-6.35777E-11
 -1       431-5.25975E+04-3.01857E+05-7.35135E+03 1.20201E+05-3.83723E-10 9.96330E-11
 -1       501 5.06653E+02-2.18896E+05 6.62101E+03-2.79475E+03-2.04375E-09-2.28714E-10
 -1       502 6.51618E+02-2.20280E+05 5.68435E+03-5.17454E+03 4.52640E-10 9.56116E-11
 -1       503 1.09699E+03-2.21497E+05 5.07791E+03-9.40976E+03 9.97240E-11 2.76948E-11
 -1       504 1.35303E+03-2.22838E+05 4.60541E+03-1.26673E+04 2.59624E-10 4.61336E-11
 -1       505 1.48239E+03-2.24331E+05 4.21176E+03-1.52980E+04-8.43981E-10-7.44579E-11
 -1       506 1.49098E+03-2.25940E+05 3.86488E+03-1.74899E+04 4.40091E-10 1.13662E-10
 -1       507 1.37211E+03-2.27648E+05 3.53974E+03-1.93350E+04-8.92912E-11-5.80952E-11
 -1       508 1.12981E+03-2.29459E+05 3.21814E+03-2.08715E+04-1.39237E-10-2.58779E-11
 -1       509 7.73592E+02-2.31393E+05 2.88650E+03-2.21094E+04 2.30283E-10 1.80428E-11
 -1       510 3.14752E+02-2.33482E+05 2.53436E+03-2.30420E+04-3.97233E-11 6.62394E-11
 -1       511-2.35390E+02-2.35766E+05 2.15338E+03-2.36507E+04-1.21160E-10-7.32753E-11
 -1       512-8.66181E+02-2.38294E+05 1.73663E+03-2.39079E+04-1.23109E-10-2.96860E-11
 -1       513-1.56768E+03-2.41117E+05 1.27818E+03-2.37783E+04 3.58420E-10 9.28980E-11
 -1       514-2.33048E+03-2.44292E+05 7.72838E+02-2.32198E+04-2.51078E-10-1.01917E-10
 -1       515-3.14548E+03-2.47877E+05 2.15987E+02-2.21837E+04-1.35850E-10 1.00811E-11
 -1       516-4.00376E+03-2.51929E+05-3.96442E+02-2.06150E+04-2.46826E-10 9.67698E-12
 -1       517-4.89678E+03-2.56508E+05-1.06794E+03-1.84528E+04 3.16284E-10 1.04237E-11
 -1       518-5.81708E+03-2.61666E+05-1.80137E+03-1.56308E+04-1.42497E-10-2.43333E-11
 -1       519-6.75985E+03-2.67448E+05-2.59886E+03-1.20781E+04 3.48393E-10 3.49333E-12
 -1       520-7.72578E+03-2.73887E+05-3.46168E+03-7.71915E+03 3.09049E-11 2.86174E-12
 -1       521-8.72585E+03-2.80989E+05-4.39020E+03-2.47435E+03-2.25024E-10-8.74225E-12
 -1       522-9.78908E+03-2.88726E+05-5.38390E+03 3.74086E+03-3.00473E-10-3.00770E-11
 -1       523-1.09745E+04-2.97016E+05-6.44159E+03 1.10190E+04 9.65596E-12 3.27840E-11
 -1       524-1.23893E+04-3.05699E+05-7.56203E+03 1.94680E+04 6.00818E-11-5.15932E-11
 -1       525-1.42142E+04-3.14506E+05-8.74502E+03 2.92275E+04 4.73704E-10 7.65210E-11
 -1       526-1.67396E+04-3.23020E+05-9.99355E+03 4.05019E+04 3.14437E-10 2.97623E-12
 -1       527-2.04068E+04-3.30630E+05-1.13173E+04 5.36239E+04-6.62580E-10-6.97066E-11
 -1       528-2.58420E+04-3.36516E+05-1.27376E+04 6.91697E+04 4.02026E-10 9.92562E-11
 -1       529-3.38487E+04-3.39697E+05-1.42969E+04 8.81554E+04 4.68558E-10 2.30750E-11
 -1       530-4.52599E+04-3.39293E+05-1.60716E+04 1.12301E+05-7.49937E-10 4.20977E-12
 -1       531-5.34054E+04-3.51394E+05-1.90982E+04 1.27932E+05-8.28888E-11 6.07113E-11
 -1       601-2.42994E+02-2.11653E+05-3.66276E+03-2.63428E+03-1.05921E-11-2.71074E-11
 -1       602-6.50762E+02-2.14050E+05-3.35631E+03-4.91496E+03 4.19516E-10 3.05893E-11
 -1       603-1.25524E+03-2.16093E+05-3.21910E+03-8.99219E+03-5.63424E-11-8.27059E-11
 -1       604-1.87039E+03-2.18004E+05-3.19651E+03-1.21605E+04 1.60065E-10 1.40348E-10
 -1       605-2.49191E+03-2.19904E+05-3.26307E+03-1.46987E+04 3.96265E-10 2.59647E-11
 -1       606-3.13653E+03-2.21846E+05-3.40223E+03-1.67828E+04 1.10954E-10-2.61799E-11
 -1       607-3.82436E+03-2.23861E+05-3.60439E+03-1.85120E+04-4.04123E-11 8.65980E-11
 -1       608-4.56990E+03-2.25976E+05-3.86495E+03-1.99358E+04-2.40645E-10-1.13944E-10
 -1       609-5.37909E+03-2.28226E+05-4.18202E+03-2.10727E+04 9.31266E-11 1.51767E-11
 -1       610-6.25135E+03-2.30652E+05-4.55513E+03-2.19217E+04-4.06211E-11 2.57812E-11
 -1       611-7.18182E+03-2.33303E+05-4.98467E+03-2.24688E+04 2.28897E-10 4.30594E-11
 -1       612-8.16283E+03-2.36230E+05-5.47152E+03-2.26905E+04 5.33509E-11 3.25752E-11
 -1       613-9.18485E+03-2.39490E+05-6.01678E+03-2.25554E+04-7.11279E-11-1.68722E-11
 -1       614-1.02370E+04-2.43144E+05-6.62170E+03-2.20251E+04-2.23807E-11 1.80165E-11
 -1       615-1.13076E+04-2.47253E+05-7.28754E+03-2.10553E+04 2.34876E-12-2.88881E-11
 -1       616-1.23842E+04-2.51882E+05-8.01546E+03-1.95949E+04-1.12215E-10 7.45278E-11
 -1       617-1.34548E+04-2.57092E+05-8.80646E+03-1.75871E+04-9.60054E-11-1.35114E-11
 -1       618-1.45085E+04-2.62944E+05-9.66129E+03-1.49682E+04 1.58245E-10 4.97716E-11
 -1       619-1.55376E+04-2.69491E+05-1.05804E+04-1.16677E+04-2.67537E-10-7.62890E-11
 -1       620-1.65404E+04-2.76773E+05-1.15640E+04-7.60700E+03-4.27573E-11-1.01212E-10
 -1       621-1.75260E+04-2.84815E+05-1.26121E+04-2.69742E+03-7.59943E-11 4.58418E-11
 -1       622-1.85202E+04-2.93614E+05-1.37246E+04 3.16325E+03 5.40812E-11-5.50552E-11
 -1       623-1.95752E+04-3.03127E+05-1.49021E+04 1.00972E+04 1.40567E-10 1.31502E-11
 -1       624-2.07816E+04-3.13260E+05-1.61463E+04 1.82579E+04 9.44548E-11-4.83840E-11
 -1       625-2.22839E+04-3.23851E+05-1.74612E+04 2.78485E+04-1.85764E-10-5.13123E-11
 -1       626-2.42966E+04-3.34656E+05-1.88554E+04 3.91536E+04 4.01893E-10-3.22508E-12
 -1       627-2.71177E+04-3.45344E+05-2.03443E+04 5.25879E+04-3.51483E-10-1.42384E-11
 -1       628-3.11259E+04-3.55522E+05-2.19540E+04 6.87698E+04-4.60996E-10-4.07286E-11
 -1       629-3.67400E+04-3.64813E+05-2.37269E+04 8.86156E+04-6.19170E-10-1.79919E-11
 -1       630-4.43147E+04-3.73060E+05-2.57289E+04 1.13439E+05-2.13038E-10 1.18404E-10
 -1       631-5.04929E+04-3.93896E+05-2.90365E+04 1.29519E+05-8.44493E-10-1.01216E-10
 -1       701-9.38071E+02-2.04874E+05-1.34368E+04-2.42273E+03 2.76423E-10 3.36990E-11
 -1       702-1.84300E+03-2.08079E+05-1.19672E+04-4.54333E+03-6.69950E-10-5.20384E-11
 -1       703-3.39506E+03-2.10843E+05-1.11268E+04-8.35155E+03-5.11589E-11-5.28883E-11
 -1       704-4.77827E+03-2.13309E+05-1.06296E+04-1.13410E+04-2.70701E-10-1.04006E-10
 -1       705-6.05861E+03-2.15638E+05-1.03756E+04-1.37387E+04-2.49645E-10-1.06283E-11
 -1       706-7.28245E+03-2.17930E+05-1.03029E+04-1.56941E+04 1.03404E-10 4.13325E-11
 -1       707-8.48471E+03-2.20255E+05-1.03724E+04-1.73002E+04-1.53838E-11 3.87258E-12
 -1       708-9.69007E+03-2.22668E+05-1.05589E+04-1.86088E+04-7.65706E-11-5.14780E-11
 -1       709-1.09136E+04-2.25219E+05-1.08461E+04-1.96439E+04 1.12086E-10-2.01215E-11
 -1       710-1.21621E+04-2.27962E+05-1.12233E+04-2.04099E+04 1.12267E-10 4.75080E-11
 -1       711-1.34358E+04-2.30952E+05-1.16832E+04-2.08977E+04-1.77722E-10-4.40650E-11
 -1       712-1.47301E+04-2.34245E+05-1.22209E+04-2.10881E+04-1.95298E-10-5.51496E-11
 -1       713-1.60367E+04-2.37905E+05-1.28331E+04-2.09542E+04 4.68553E-12-9.71921E-12
 -1       714-1.73446E+04-2.41996E+05-1.35175E+04-2.04618E+04-2.09811E-10-7.49692E-11
 -1       715-1.86405E+04-2.46584E+05-1.42722E+04-1.95707E+04 2.28961E-10 9.19645E-11
 -1       716-1.99098E+04-2.51739E+05-1.50958E+04-1.82339E+04 2.66231E-11-2.60768E-11
 -1       717-2.11376E+04-2.57529E+05-1.59874E+04-1.63980E+04-3.13359E-10-6.37668E-11
 -1       718-2.23093E+04-2.64021E+05-1.69458E+04-1.40015E+04-1.22218E-10-2.23837E-11
 -1       719-2.34131E+04-2.71278E+05-1.79701E+04-1.09746E+04 1.63492E-10 2.31999E-11
 -1       720-2.44415E+04-2.79357E+05-1.90593E+04-7.23617E+03 7.84556E-11 2.55880E-12
 -1       721-2.53957E+04-2.88302E+05-2.02129E+04-2.69100E+03 3.17931E-10 1.52651E-12
 -1       722-2.62895E+04-2.98139E+05-2.14306E+04 2.77525E+03-9.20301E-11 2.45584E-12
 -1       723-2.71550E+04-3.08874E+05-2.27129E+04 9.30379E+03 3.78692E-10-3.79379E-11
 -1       724-2.80501E+04-3.20480E+05-2.40622E+04 1.70742E+04-6.78488E-11-1.00319E-11
 -1       725-2.90646E+04-3.32898E+05-2.54830E+04 2.63217E+04-1.83129E-10-8.28596E-13
 -1       726-3.03255E+04-3.46034E+05-2.69836E+04 3.73612E+04-9.80978E-11 2.80252E-11
 -1       727-3.19957E+04-3.59771E+05-2.85780E+04 5.06207E+04-1.56164E-12 6.08708E-11
 -1       728-3.42597E+04-3.74000E+05-3.02876E+04 6.66821E+04 5.66037E-10-7.03027E-11
 -1       729-3.72871E+04-3.88687E+05-3.21442E+04 8.63227E+04 7.82725E-11 9.26951E-11
 -1       730-4.11639E+04-4.03994E+05-3.41931E+04 1.10540E+05 8.68039E-11-3.44085E-11
 -1       731-4.54102E+04-4.31112E+05-3.75231E+04 1.26202E+05-4.72258E-10 7.63054E-11
 -1       801-1.57023E+03-1.98664E+05-2.25016E+04-2.17439E+03 9.13848E-11 3.43077E-11
 -1       802-2.91764E+03-2.02527E+05-1.99727E+04-4.09479E+03-1.19948E-09-2.90250E-10
 -1       803-5.31747E+03-2.05909E+05-1.84849E+04-7.55275E+03 1.55516E-10 9.27789E-11
 -1       804-7.37794E+03-2.08880E+05-1.75462E+04-1.02912E+04-1.08620E-11-2.28964E-11
 -1       805-9.23242E+03-2.11620E+05-1.69892E+04-1.24960E+04 9.13496E-11 9.69027E-11
 -1       806-1.09606E+04-2.14257E+05-1.67113E+04-1.42911E+04-1.17972E-10-8.05751E-11
 -1       807-1.26137E+04-2.16888E+05-1.66472E+04-1.57574E+04 1.47908E-10-5.94541E-12
 -1       808-1.42257E+04-2.19588E+05-1.67536E+04-1.69433E+04-1.44112E-10 2.05776E-11
 -1       809-1.58177E+04-2.22423E+05-1.70014E+04-1.78741E+04 3.28541E-10 1.02729E-10
 -1       810-1.74013E+04-2.25459E+05-1.73705E+04-1.85573E+04 3.52487E-10 5.00400E-12
 -1       811-1.89803E+04-2.28757E+05-1.78469E+04-1.89879E+04-7.49454E-11-1.15846E-11
 -1       812-2.05524E+04-2.32382E+05-1.84204E+04-1.91512E+04 3.65240E-10 1.15610E-10
 -1       813-2.21102E+04-2.36402E+05-1.90835E+04-1.90242E+04-2.62019E-10-5.15558E-11
 -1       814-2.36429E+04-2.40885E+05-1.98305E+04-1.85775E+04 4.72362E-11-2.15177E-11
 -1       815-2.51360E+04-2.45904E+05-2.06571E+04-1.77749E+04 1.95458E-11 7.47697E-11
 -1       816-2.65732E+04-2.51532E+05-2.15595E+04-1.65737E+04 3.05599E-10 6.15458E-11
 -1       817-2.79363E+04-2.57847E+05-2.25349E+04-1.49240E+04-2.35393E-10-6.06878E-11
 -1       818-2.92067E+04-2.64923E+05-2.35805E+04-1.27676E+04 1.57243E-10 1.73018E-11
 -1       819-3.03664E+04-2.72835E+05-2.46941E+04-1.00361E+04 9.03350E-11 9.71569E-11
 -1       820-3.13999E+04-2.81657E+05-2.58736E+04-6.64876E+03-2.04816E-10-1.42827E-10
 -1       821-3.22962E+04-2.91456E+05-2.71173E+04-2.50812E+03 6.22605E-11 3.68443E-11
 -1       822-3.30512E+04-3.02290E+05-2.84240E+04 2.50486E+03-2.46888E-10-1.95310E-12
 -1       823-3.36706E+04-3.14212E+05-2.97934E+04 8.53847E+03-1.11572E-10-7.88909E-11
 -1       824-3.41726E+04-3.27260E+05-3.12264E+04 1.57805E+04 3.12629E-12 2.78523E-11
 -1       825-3.45892E+04-3.41465E+05-3.27256E+04 2.44718E+04 4.31007E-10 3.41607E-11
 -1       826-3.49649E+04-3.56854E+05-3.42965E+04 3.49240E+04-2.10537E-11-6.91852E-11
 -1       827-3.53501E+04-3.73465E+05-3.59477E+04 4.75399E+04 5.16825E-11 1.07125E-10
 -1       828-3.57858E+04-3.91377E+05-3.76924E+04 6.28344E+04-1.75096E-10-6.25958E-11
 -1       829-3.62770E+04-4.10750E+05-3.95492E+04 8.14508E+04-2.89007E-10-2.83244E-11
 -1       830-3.67528E+04-4.31900E+05-4.15431E+04 1.04160E+05-4.15855E-10-1.64258E-11
 -1       831-3.92181E+04-4.63809E+05-4.47691E+04 1.18819E+05 4.72141E-10-6.94638E-11
 -1       901-2.13055E+03-1.93116E+05-3.06877E+04-1.89968E+03-2.85072E-10-3.98608E-11
 -1       902-3.86572E+03-1.97516E+05-2.72192E+04-3.58986E+03 1.03115E-09 2.32925E-10
 -1       903-7.01102E+03-2.01418E+05-2.51518E+04-6.63852E+03-8.05537E-10-1.33494E-10
 -1       904-9.66142E+03-2.04829E+05-2.38143E+04-9.06996E+03 8.16687E-11 5.79445E-11
 -1       905-1.20110E+04-2.07942E+05-2.29804E+04-1.10358E+04-5.47338E-11-7.26563E-11
 -1       906-1.41717E+04-2.10902E+05-2.25120E+04-1.26377E+04-3.00424E-10-4.51417E-11
 -1       907-1.62117E+04-2.13819E+05-2.23203E+04-1.39431E+04-2.76459E-10-5.86081E-11
 -1       908-1.81739E+04-2.16787E+05-2.23466E+04-1.49943E+04 3.20901E-10 9.06223E-11
 -1       909-2.00849E+04-2.19884E+05-2.25506E+04-1.58149E+04-8.96725E-11 6.57236E-13
 -1       910-2.19597E+04-2.23184E+05-2.29042E+04-1.64135E+04-2.34660E-10-1.07080E-10
 -1       911-2.38043E+04-2.26759E+05-2.33871E+04-1.67880E+04 1.61374E-10 2.42142E-11
 -1       912-2.56180E+04-2.30679E+05-2.39847E+04-1.69270E+04-9.89208E-11-3.62204E-11
 -1       913-2.73940E+04-2.35016E+05-2.46857E+04-1.68119E+04-2.60690E-10-1.11014E-10
 -1       914-2.91212E+04-2.39846E+05-2.54816E+04-1.64172E+04 1.86408E-10 7.12844E-11
 -1       915-3.07842E+04-2.45245E+05-2.63656E+04-1.57115E+04 1.84784E-11-1.83397E-11
 -1       916-3.23644E+04-2.51293E+05-2.73320E+04-1.46565E+04-2.45443E-11-9.84717E-12
 -1       917-3.38403E+04-2.58074E+05-2.83763E+04-1.32068E+04 1.33910E-10-7.99422E-12
 -1       918-3.51885E+04-2.65674E+05-2.94942E+04-1.13083E+04 8.98023E-11 2.98601E-11
 -1       919-3.63839E+04-2.74180E+05-3.06821E+04-8.89684E+03-2.50201E-10-1.25607E-10
 -1       920-3.74012E+04-2.83681E+05-3.19366E+04-5.89470E+03-2.72414E-10-1.33304E-11
 -1       921-3.82149E+04-2.94268E+05-3.32548E+04-2.20761E+03 1.34504E-11-6.34108E-13
 -1       922-3.88010E+04-3.06033E+05-3.46342E+04 2.28060E+03 1.49808E-10-6.72818E-12
 -1       923-3.91368E+04-3.19070E+05-3.60725E+04 7.71441E+03-3.19852E-11 1.66363E-11
 -1       924-3.92011E+04-3.33475E+05-3.75686E+04 1.42750E+04-1.79320E-10-4.32779E-11
 -1       925-3.89725E+04-3.49352E+05-3.91220E+04 2.21904E+04-5.90893E-10-1.29070E-10
 -1       926-3.84247E+04-3.66824E+05-4.07337E+04 3.17474E+04 5.77370E-10 1.36653E-10
 -1       927-3.75193E+04-3.86040E+05-4.24060E+04 4.33038E+04-3.34316E-10-6.94619E-11
 -1       928-3.61926E+04-4.07202E+05-4.41431E+04 5.72989E+04 4.45466E-10 4.13501E-11
 -1       929-3.43381E+04-4.30590E+05-4.59512E+04 7.42589E+04 1.55011E-10-2.24810E-11
 -1       930-3.17840E+04-4.56597E+05-4.78379E+04 9.47901E+04 4.49524E-10 6.69640E-11
 -1       931-3.26650E+04-4.92293E+05-5.09042E+04 1.08021E+05-1.89268E-10-4.10326E-11
 -1      1001-2.61298E+03-1.88304E+05-3.78517E+04-1.60580E+03-2.28865E-10-1.24688E-10
 -1      1002-4.67953E+03-1.93138E+05-3.35744E+04-3.04327E+03 2.32076E-10 2.01723E-11
 -1      1003-8.46389E+03-1.97469E+05-3.10042E+04-5.63881E+03-1.06586E-10-4.82157E-11
 -1      1004-1.16171E+04-2.01253E+05-2.93182E+04-7.72045E+03-2.51143E-11 2.69902E-11
 -1      1005-1.43854E+04-2.04690E+05-2.82403E+04-9.40997E+03-2.06577E-10-2.02974E-11
 -1      1006-1.69096E+04-2.07934E+05-2.76017E+04-1.07890E+04-5.26493E-12-2.30277E-11
 -1      1007-1.92740E+04-2.11108E+05-2.72941E+04-1.19123E+04-2.83099E-10-5.04264E-11
 -1      1008-2.15301E+04-2.14316E+05-2.72452E+04-1.28150E+04 1.24441E-10-7.94041E-13
 -1      1009-2.37096E+04-2.17645E+05-2.74054E+04-1.35171E+04-6.95596E-10-1.34422E-10
 -1      1010-2.58302E+04-2.21179E+05-2.77398E+04-1.40274E+04 2.28277E-10 6.43908E-11
 -1      1011-2.78997E+04-2.24995E+05-2.82228E+04-1.43450E+04-2.72874E-10-3.37745E-11
 -1      1012-2.99181E+04-2.29170E+05-2.88359E+04-1.44614E+04 3.52880E-10 9.85828E-11
 -1      1013-3.18789E+04-2.33782E+05-2.95646E+04-1.43615E+04-1.03880E-10-3.05529E-11
 -1      1014-3.37704E+04-2.38910E+05-3.03979E+04-1.40244E+04 6.35449E-11-3.59934E-12
 -1      1015-3.55759E+04-2.44636E+05-3.13270E+04-1.34230E+04-4.54034E-10-1.21163E-10
 -1      1016-3.72744E+04-2.51048E+05-3.23445E+04-1.25243E+04 2.24731E-10 6.98287E-11
 -1      1017-3.88411E+04-2.58235E+05-3.34441E+04-1.12883E+04-4.30964E-11 1.08926E-11
 -1      1018-4.02471E+04-2.66292E+05-3.46205E+04-9.66686E+03-3.02089E-10-5.91277E-11
 -1      1019-4.14602E+04-2.75320E+05-3.58687E+04-7.60178E+03-2.40231E-10-2.11257E-11
 -1      1020-4.24442E+04-2.85425E+05-3.71839E+04-5.02244E+03-1.66216E-11-9.75100E-12
 -1      1021-4.31597E+04-2.96719E+05-3.85618E+04-1.84246E+03 2.33145E-12-1.00089E-11
 -1      1022-4.35624E+04-3.09322E+05-3.99983E+04 2.04464E+03 2.83546E-10 1.86715E-11
 -1      1023-4.36031E+04-3.23365E+05-4.14891E+04 6.77063E+03-3.34336E-10-7.71825E-11
 -1      1024-4.32251E+04-3.38993E+05-4.30304E+04 1.24990E+04 2.15406E-10 3.26662E-11
 -1      1025-4.23610E+04-3.56370E+05-4.46184E+04 1.94323E+04-1.00048E-10-4.87223E-11
 -1      1026-4.09276E+04-3.75688E+05-4.62492E+04 2.78199E+04 7.66799E-11 4.23687E-11
 -1      1027-3.88182E+04-3.97177E+05-4.79190E+04 3.79652E+04-3.27595E-10-1.22651E-10
 -1      1028-3.58927E+04-4.21123E+05-4.96239E+04 5.02314E+04-4.26206E-10-1.71715E-11
 -1      1029-3.19655E+04-4.47882E+05-5.13592E+04 6.50428E+04 5.62867E-10 1.12700E-10
 -1      1030-2.67940E+04-4.77900E+05-5.31190E+04 8.28796E+04 3.64523E-11 2.77883E-11
 -1      1031-2.63097E+04-5.16635E+05-5.60107E+04 9.43604E+04 4.05501E-10 6.51422E-11
 -1      1101-3.01293E+03-1.84289E+05-4.38739E+04-1.29815E+03 1.01272E-10-3.49579E-11
 -1      1102-5.35292E+03-1.89464E+05-3.89266E+04-2.46605E+03 4.95097E-10 1.04260E-10
 -1      1103-9.66589E+03-1.94140E+05-3.59371E+04-4.57611E+03-4.59206E-10-6.77972E-11
 -1      1104-1.32335E+04-1.98227E+05-3.39588E+04-6.27570E+03 2.17866E-10 4.54079E-11
 -1      1105-1.63451E+04-2.01933E+05-3.26749E+04-7.65960E+03 7.29372E-10 1.28926E-10
 -1      1106-1.91657E+04-2.05416E+05-3.18913E+04-8.79129E+03 4.32381E-10 7.08813E-11
 -1      1107-2.17937E+04-2.08810E+05-3.14835E+04-9.71346E+03-7.55712E-11-1.34967E-11
 -1      1108-2.42886E+04-2.12222E+05-3.13684E+04-1.04538E+04-6.43331E-11-3.92503E-11
 -1      1109-2.66863E+04-2.15750E+05-3.14884E+04-1.10288E+04 7.14306E-11 1.36629E-11
 -1      1110-2.90072E+04-2.19481E+05-3.18030E+04-1.14456E+04 3.21289E-10 6.05442E-11
 -1      1111-3.12602E+04-2.23501E+05-3.22825E+04-1.17042E+04 5.18919E-11 2.17519E-11
 -1      1112-3.34458E+04-2.27889E+05-3.29049E+04-1.17984E+04-3.89332E-10-8.39016E-11
 -1      1113-3.55575E+04-2.32729E+05-3.36533E+04-1.17164E+04 4.06793E-10 9.39273E-11
 -1      1114-3.75828E+04-2.38105E+05-3.45146E+04-1.14412E+04 3.20095E-10 7.60356E-11
 -1      1115-3.95036E+04-2.44105E+05-3.54782E+04-1.09510E+04-1.28824E-10-6.37619E-11
 -1      1116-4.12966E+04-2.50819E+05-3.65353E+04-1.02182E+04 4.72081E-11 1.04981E-11
 -1      1117-4.29332E+04-2.58347E+05-3.76783E+04-9.20944E+03 5.33805E-11-6.14111E-12
 -1      1118-4.43798E+04-2.66790E+05-3.89006E+04-7.88389E+03 1.53197E-11-1.90015E-11
 -1      1119-4.55968E+04-2.76261E+05-4.01960E+04-6.19201E+03 1.84360E-11 1.14394E-11
 -1      1120-4.65383E+04-2.86881E+05-4.15586E+04-4.07326E+03 2.03534E-10 8.44664E-11
 -1      1121-4.71515E+04-2.98780E+05-4.29827E+04-1.45345E+03 8.97804E-11 1.73769E-11
 -1      1122-4.73744E+04-3.12104E+05-4.44623E+04 1.75862E+03 1.46596E-11-5.25489E-11
 -1      1123-4.71346E+04-3.27014E+05-4.59914E+04 5.67527E+03 4.74081E-10 1.04885E-10
 -1      1124-4.63456E+04-3.43693E+05-4.75636E+04 1.04346E+04-4.21310E-10-4.68541E-11
 -1      1125-4.49032E+04-3.62349E+05-4.91715E+04 1.62053E+04 3.34493E-10 6.78055E-11
 -1      1126-4.26798E+04-3.83228E+05-5.08072E+04 2.31921E+04-2.90641E-10-5.53936E-11
 -1      1127-3.95177E+04-4.06618E+05-5.24616E+04 3.16400E+04 1.94580E-10 4.65018E-11
 -1      1128-3.52207E+04-4.32862E+05-5.41235E+04 4.18376E+04 1.20739E-10 3.70117E-12
 -1      1129-2.95461E+04-4.62370E+05-5.57799E+04 5.41175E+04-5.12561E-11-1.19323E-12
 -1      1130-2.21968E+04-4.95628E+05-5.74143E+04 6.88549E+04-3.06831E-10-7.04042E-11
 -1      1131-2.05791E+04-5.36780E+05-6.01412E+04 7.83327E+04 3.26956E-10 3.97969E-11
 -1      1201-3.32707E+03-1.81119E+05-4.86575E+04-9.80894E+02-4.93177E-10-3.92885E-11
 -1      1202-5.88114E+03-1.86552E+05-4.31842E+04-1.86680E+03-3.16405E-10-5.26835E-11
 -1      1203-1.06089E+04-1.91491E+05-3.98641E+04-3.46792E+03 6.43440E-10 9.11918E-11
 -1      1204-1.45009E+04-1.95814E+05-3.76542E+04-4.76172E+03-2.62406E-11-4.44123E-11
 -1      1205-1.78801E+04-1.99729E+05-3.62062E+04-5.81786E+03-2.31666E-10-4.90138E-11
 -1      1206-2.09310E+04-2.03403E+05-3.53064E+04-6.68294E+03 1.62277E-10 1.99512E-11
 -1      1207-2.37631E+04-2.06971E+05-3.48176E+04-7.38835E+03 1.02306E-10 2.21779E-11
 -1      1208-2.64426E+04-2.10547E+05-3.46480E+04-7.95460E+03-9.18913E-11-4.31746E-11
 -1      1209-2.90091E+04-2.14234E+05-3.47341E+04-8.39396E+03 1.55095E-10 3.49007E-11
 -1      1210-3.14849E+04-2.18123E+05-3.50309E+04-8.71210E+03 1.47430E-10-6.35452E-14
 -1      1211-3.38802E+04-2.22304E+05-3.55054E+04-8.90922E+03 2.14806E-10 2.41993E-11
 -1      1212-3.61955E+04-2.26862E+05-3.61331E+04-8.98083E+03-4.49641E-10-6.44039E-11
 -1      1213-3.84243E+04-2.31883E+05-3.68951E+04-8.91821E+03 1.41392E-10 4.04262E-12
 -1      1214-4.05530E+04-2.37455E+05-3.77765E+04-8.70864E+03-1.48838E-10-2.11275E-11
 -1      1215-4.25624E+04-2.43670E+05-3.87655E+04-8.33533E+03-4.12671E-11-7.66121E-12
 -1      1216-4.44268E+04-2.50625E+05-3.98519E+04-7.77716E+03-3.11353E-10-1.72870E-11
 -1      1217-4.61148E+04-2.58422E+05-4.10274E+04-7.00805E+03 6.74988E-11 1.83545E-11
 -1      1218-4.75879E+04-2.67174E+05-4.22840E+04-5.99608E+03 3.58429E-10 1.03404E-10
 -1      1219-4.88004E+04-2.77000E+05-4.36148E+04-4.70223E+03-5.34081E-11 5.08260E-12
 -1      1220-4.96983E+04-2.88034E+05-4.50126E+04-3.07878E+03-1.02649E-10-6.69074E-11
 -1      1221-5.02173E+04-3.00423E+05-4.64706E+04-1.06717E+03 1.14162E-10 1.89517E-11
 -1      1222-5.02810E+04-3.14329E+05-4.79815E+04 1.40439E+03-3.63371E-10-1.18398E-10
 -1      1223-4.97982E+04-3.29940E+05-4.95372E+04 4.42385E+03 6.88809E-11 9.43801E-12
 -1      1224-4.86596E+04-3.47465E+05-5.11291E+04 8.09851E+03-1.83961E-10 5.62024E-11
 -1      1225-4.67327E+04-3.67148E+05-5.27473E+04 1.25584E+04-5.51650E-11-3.56420E-11
 -1      1226-4.38571E+04-3.89270E+05-5.43802E+04 1.79594E+04-3.08470E-10-2.15104E-11
 -1      1227-3.98381E+04-4.14162E+05-5.60142E+04 2.44861E+04 6.05546E-10 7.16753E-11
 -1      1228-3.44393E+04-4.42206E+05-5.76330E+04 3.23541E+04-2.95992E-10-5.44853E-11
 -1      1229-2.73761E+04-4.73850E+05-5.92169E+04 4.18105E+04-3.89631E-10-3.33501E-11
 -1      1230-1.83095E+04-5.09613E+05-6.07419E+04 5.31342E+04-1.78731E-10-2.55393E-11
 -1      1231-1.57997E+04-5.52622E+05-6.33289E+04 6.04125E+04 8.12619E-11 5.42967E-11
 -1      1301-3.55302E+03-1.78830E+05-5.21275E+04-6.57181E+02 3.21352E-10 7.48243E-11
 -1      1302-6.26076E+03-1.84442E+05-4.62763E+04-1.25238E+03 6.19963E-11-2.09409E-11
 -1      1303-1.12866E+04-1.89568E+05-4.27176E+04-2.32828E+03-1.09055E-10-6.94304E-12
 -1      1304-1.54116E+04-1.94058E+05-4.03401E+04-3.19961E+03-1.68438E-10 9.76868E-12
 -1      1305-1.89825E+04-1.98124E+05-3.87729E+04-3.91216E+03-2.78147E-10-3.49833E-11
 -1      1306-2.21978E+04-2.01935E+05-3.77883E+04-4.49653E+03 3.08328E-10 1.55776E-11
 -1      1307-2.51753E+04-2.05629E+05-3.72399E+04-4.97336E+03 3.04533E-10 4.47639E-11
 -1      1308-2.79861E+04-2.09325E+05-3.70299E+04-5.35617E+03 1.52382E-10-1.79814E-12
 -1      1309-3.06726E+04-2.13128E+05-3.70904E+04-5.65312E+03 6.69991E-11 3.05306E-11
 -1      1310-3.32587E+04-2.17133E+05-3.73732E+04-5.86800E+03-2.74345E-10-1.28327E-11
 -1      1311-3.57551E+04-2.21431E+05-3.78431E+04-6.00106E+03-3.86121E-10-2.02789E-11
 -1      1312-3.81628E+04-2.26112E+05-3.84735E+04-6.04938E+03 2.16629E-10-1.27050E-11
 -1      1313-4.04748E+04-2.31264E+05-3.92442E+04-6.00718E+03-4.76787E-10-7.35641E-11
 -1      1314-4.26771E+04-2.36977E+05-4.01391E+04-5.86593E+03-1.27617E-10-4.09181E-12
 -1      1315-4.47489E+04-2.43348E+05-4.11454E+04-5.61428E+03 2.06467E-10 3.26846E-11
 -1      1316-4.66632E+04-2.50477E+05-4.22521E+04-5.23786E+03-2.65113E-11 9.31157E-12
 -1      1317-4.83858E+04-2.58471E+05-4.34499E+04-4.71882E+03 4.61521E-11-3.59069E-13
 -1      1318-4.98749E+04-2.67447E+05-4.47304E+04-4.03522E+03-2.65137E-10-9.26784E-12
 -1      1319-5.10800E+04-2.77533E+05-4.60856E+04-3.16016E+03 2.76833E-10 4.56852E-12
 -1      1320-5.19406E+04-2.88871E+05-4.75078E+04-2.06072E+03-1.22368E-10 9.32091E-12
 -1      1321-5.23840E+04-3.01618E+05-4.89889E+04-6.96482E+02-2.00927E-10-3.79839E-11
 -1      1322-5.23233E+04-3.15953E+05-5.05205E+04 9.81925E+02-6.23255E-11 6.43119E-11
 -1      1323-5.16538E+04-3.32078E+05-5.20935E+04 3.03483E+03 1.21404E-10-3.41890E-11
 -1      1324-5.02496E+04-3.50223E+05-5.36972E+04 5.53537E+03 1.14083E-10 6.58289E-12
 -1      1325-4.79588E+04-3.70654E+05-5.53198E+04 8.57167E+03-1.83051E-10 1.70127E-12
 -1      1326-4.45984E+04-3.93680E+05-5.69471E+04 1.22486E+04 2.07546E-10 1.75088E-12
 -1      1327-3.99483E+04-4.19655E+05-5.85622E+04 1.66898E+04 8.66281E-11-1.84454E-12
 -1      1328-3.37451E+04-4.48991E+05-6.01452E+04 2.20383E+04-1.58741E-11 2.18243E-11
 -1      1329-2.56752E+04-4.82163E+05-6.16718E+04 2.84584E+04-8.70469E-11-1.03583E-11
 -1      1330-1.53688E+04-5.19714E+05-6.31128E+04 3.61360E+04-1.69720E-11-9.61060E-12
 -1      1331-1.22159E+04-5.64040E+05-6.55939E+04 4.10689E+04 2.10121E-10 1.41654E-10
 -1      1401-3.68919E+03-1.77446E+05-5.42308E+04-3.29525E+02-1.67651E-10 2.18246E-11
 -1      1402-6.48944E+03-1.83166E+05-4.81519E+04-6.28469E+02-3.02985E-10 1.21575E-11
 -1      1403-1.16950E+04-1.88402E+05-4.44492E+04-1.16890E+03-1.98803E-10-1.46211E-11
 -1      1404-1.59602E+04-1.92991E+05-4.19702E+04-1.60714E+03-1.84463E-10 6.05481E-12
 -1      1405-1.96464E+04-1.97148E+05-4.03307E+04-1.96591E+03 2.32064E-10 4.85744E-11
 -1      1406-2.29603E+04-2.01042E+05-3.92945E+04-2.26037E+03-3.44190E-10 1.75917E-13
 -1      1407-2.60249E+04-2.04813E+05-3.87098E+04-2.50075E+03-3.41413E-10-1.93174E-11
 -1      1408-2.89142E+04-2.08582E+05-3.84749E+04-2.69376E+03-2.36839E-11-5.36894E-12
 -1      1409-3.16725E+04-2.12455E+05-3.85196E+04-2.84347E+03-7.36087E-11 1.33584E-12
 -1      1410-3.43246E+04-2.16530E+05-3.87935E+04-2.95178E+03-8.42948E-11-4.58648E-12
 -1      1411-3.68816E+04-2.20900E+05-3.92600E+04-3.01883E+03-2.42217E-10-2.46736E-11
 -1      1412-3.93446E+04-2.25655E+05-3.98917E+04-3.04319E+03-7.93905E-11-1.54843E-11
 -1      1413-4.17063E+04-2.30886E+05-4.06672E+04-3.02196E+03 2.36852E-10 3.92001E-11
 -1      1414-4.39524E+04-2.36686E+05-4.15699E+04-2.95087E+03-3.95413E-10-4.96352E-11
 -1      1415-4.60615E+04-2.43151E+05-4.25862E+04-2.82419E+03-9.82920E-12 1.92774E-11
 -1      1416-4.80051E+04-2.50385E+05-4.37048E+04-2.63465E+03-2.64959E-10-3.83129E-11
 -1      1417-4.97476E+04-2.58498E+05-4.49158E+04-2.37317E+03-3.86162E-10 8.80620E-12
 -1      1418-5.12450E+04-2.67611E+05-4.62102E+04-2.02859E+03-8.89563E-11-2.74261E-11
 -1      1419-5.24438E+04-2.77855E+05-4.75798E+04-1.58718E+03-1.01222E-10 2.02333E-11
 -1      1420-5.32794E+04-2.89378E+05-4.90161E+04-1.03217E+03-8.60673E-11 4.08392E-12
 -1      1421-5.36742E+04-3.02345E+05-5.05106E+04-3.42926E+02-1.91228E-10 7.83543E-12
 -1      1422-5.35345E+04-3.16942E+05-5.20542E+04 5.05672E+02-1.51983E-10-1.41847E-12
 -1      1423-5.27477E+04-3.33380E+05-5.36367E+04 1.54426E+03-5.06240E-11 2.19189E-13
 -1      1424-5.11779E+04-3.51903E+05-5.52466E+04 2.80990E+03-2.56078E-10-2.59877E-11
 -1      1425-4.86618E+04-3.72790E+05-5.68707E+04 4.34700E+03-7.20671E-11 1.14450E-11
 -1      1426-4.50032E+04-3.96363E+05-5.84931E+04 6.20831E+03-1.41231E-10-2.01634E-11
 -1      1427-3.99674E+04-4.22993E+05-6.00952E+04 8.45564E+03-4.45646E-10-3.45505E-11
 -1      1428-3.32749E+04-4.53107E+05-6.16547E+04 1.11606E+04 2.72935E-10 4.12439E-11
 -1      1429-2.45952E+04-4.87196E+05-6.31448E+04 1.44052E+04-2.14881E-10-2.76529E-11
 -1      1430-1.35395E+04-5.25819E+05-6.45331E+04 1.82824E+04 3.28324E-10 4.24296E-11
 -1      1431-9.99807E+03-5.70936E+05-6.69487E+04 2.07730E+04-9.45661E-11-2.17230E-11
 -1      1501-3.73467E+03-1.76984E+05-5.49354E+04-1.90367E+03 3.58653E-11-7.41152E-11
 -1      1502-6.56581E+03-1.82738E+05-4.87804E+04-1.91572E+03 1.72363E-10 8.01761E-11
 -1      1503-1.18313E+04-1.88011E+05-4.50296E+04-1.95460E+03-1.31623E-10-9.96122E-12
 -1      1504-1.61434E+04-1.92634E+05-4.25167E+04-2.01329E+03 1.27300E-09 1.80852E-11
 -1      1505-1.98680E+04-1.96821E+05-4.08529E+04-2.08757E+03-2.35925E-10 1.07778E-11
 -1      1506-2.32149E+04-2.00742E+05-3.97994E+04-2.17474E+03-4.36428E-10 2.71634E-11
 -1      1507-2.63085E+04-2.04539E+05-3.92025E+04-2.27298E+03 7.56454E-10 1.69686E-11
 -1      1508-2.92240E+04-2.08333E+05-3.89593E+04-2.38096E+03-4.33048E-10-7.17014E-12
 -1      1509-3.20062E+04-2.12229E+05-3.89985E+04-2.49767E+03 4.43801E-10-2.39115E-11
 -1      1510-3.46802E+04-2.16328E+05-3.92694E+04-2.62222E+03-5.14260E-10 1.62398E-11
 -1      1511-3.72573E+04-2.20721E+05-3.97348E+04-2.75377E+03 6.14870E-10 5.74544E-12
 -1      1512-3.97387E+04-2.25501E+05-4.03667E+04-2.89151E+03-1.52318E-10 4.23726E-11
 -1      1513-4.21170E+04-2.30759E+05-4.11438E+04-3.03455E+03-6.49558E-10-1.65548E-11
 -1      1514-4.43777E+04-2.36587E+05-4.20490E+04-3.18190E+03 1.83068E-10 3.83013E-11
 -1      1515-4.64991E+04-2.43084E+05-4.30686E+04-3.33246E+03 3.37670E-11 2.00795E-11
 -1      1516-4.84524E+04-2.50354E+05-4.41911E+04-3.48492E+03-2.52470E-10-1.21304E-12
 -1      1517-5.02014E+04-2.58507E+05-4.54065E+04-3.63771E+03 2.17818E-10-4.91399E-11
 -1      1518-5.17013E+04-2.67666E+05-4.67055E+04-3.78893E+03-2.04975E-10-5.54440E-11
 -1      1519-5.28976E+04-2.77963E+05-4.80798E+04-3.93619E+03 8.15851E-11 1.10184E-10
 -1      1520-5.37246E+04-2.89549E+05-4.95208E+04-4.07655E+03-1.58118E-10-8.74055E-11
 -1      1521-5.41026E+04-3.02589E+05-5.10196E+04-4.20630E+03 4.33699E-10 2.37139E-11
 -1      1522-5.39359E+04-3.17274E+05-5.25671E+04-4.32076E+03-3.06935E-10-2.36303E-11
 -1      1523-5.31090E+04-3.33817E+05-5.41526E+04-4.41408E+03 2.20195E-11-4.62297E-11
 -1      1524-5.14830E+04-3.52468E+05-5.57645E+04-4.47895E+03 1.90464E-10 1.46720E-11
 -1      1525-4.88907E+04-3.73507E+05-5.73888E+04-4.50636E+03 3.88142E-10-4.88628E-13
 -1      1526-4.51315E+04-3.97264E+05-5.90094E+04-4.48529E+03 3.13778E-10 1.84428E-11
 -1      1527-3.99659E+04-4.24112E+05-6.06069E+04-4.40248E+03-4.40969E-10-5.21629E-12
 -1      1528-3.31093E+04-4.54486E+05-6.21583E+04-4.24212E+03 2.23057E-10-4.80094E-12
 -1      1529-2.42253E+04-4.88881E+05-6.36358E+04-3.98567E+03 8.85951E-11-1.23093E-11
 -1      1530-1.29189E+04-5.27862E+05-6.50062E+04-3.61150E+03-5.48181E-10 4.00523E-11
 -1      1531-9.24757E+03-5.73242E+05-6.73996E+04-3.18802E+03 2.84690E-10-9.76775E-11
 -3
    1PSTEP                        11           6           1          
  100CL  106 6.00000E-01         496                     0    6           1
 -4  DISP        4    1
 -5  D1          1    2    1    0
 -5  D2          1    2    2    0
 -5  D3          1    2    3    0
 -5  ALL         1    2    0    0    1ALL
 -1         1 1.15874E-08 6.87814E-08 7.09502E-25
 -1         2 1.20755E-08 6.97551E-08 7.39388E-25
 -1         3 1.27426E-08 7.06726E-08 7.80235E-25
 -1         4 1.35444E-08 7.15509E-08 8.29330E-25
 -1         5 1.44608E-08 7.24068E-08 8.85439E-25
 -1         6 1.54825E-08 7.32598E-08 9.47996E-25
 -1         7 1.66054E-08 7.41317E-08 1.01675E-24
 -1         8 1.78282E-08 7.50457E-08 1.09162E-24
 -1         9 1.91507E-08 7.60260E-08 1.17260E-24
 -1        10 2.05733E-08 7.70981E-08 1.25971E-24
 -1        11 2.20968E-08 7.82884E-08 1.35300E-24
 -1        12 2.37216E-08 7.96248E-08 1.45248E-24
 -1        13 2.54477E-08 8.11368E-08 1.55817E-24
 -1        14 2.72743E-08 8.28552E-08 1.67002E-24
 -1        15 2.91996E-08 8.48129E-08 1.78790E-24
 -1        16 3.12202E-08 8.70445E-08 1.91162E-24
 -1        17 3.33308E-08 8.95865E-08 2.04086E-24
 -1        18 3.55237E-08 9.24766E-08 2.17513E-24
 -1        19 3.77879E-08 9.57542E-08 2.31376E-24
 -1        20 4.01086E-08 9.94588E-08 2.45586E-24
 -1        21 4.24664E-08 1.03629E-07 2.60023E-24
 -1        22 4.48360E-08 1.08302E-07 2.74532E-24
 -1        23 4.71853E-08 1.13509E-07 2.88917E-24
 -1        24 4.94745E-08 1.19272E-07 3.02934E-24
 -1        25 5.16548E-08 1.25599E-07 3.16284E-24
 -1        26 5.36685E-08 1.32475E-07 3.28614E-24
 -1        27 5.54502E-08 1.39848E-07 3.39523E-24
 -1        28 5.69303E-08 1.47608E-07 3.48586E-24
 -1        29 5.80457E-08 1.55554E-07 3.55416E-24
 -1        30 5.87620E-08 1.63342E-07 3.59802E-24
 -1        31 5.91408E-08 1.70526E-07 3.62121E-24
 -1       101 8.48011E-09 6.05162E-08 5.19240E-25
 -1       102 9.08224E-09 6.15150E-08 5.56108E-25
 -1       103 9.77686E-09 6.24259E-08 5.98640E-25
 -1       104 1.05479E-08 6.32716E-08 6.45853E-25
 -1       105 1.13827E-08 6.40767E-08 6.96969E-25
 -1       106 1.22717E-08 6.48659E-08 7.51398E-25
 -1       107 1.32078E-08 6.56641E-08 8.08720E-25
 -1       108 1.41863E-08 6.64962E-08 8.68633E-25
 -1       109 1.52034E-08 6.73880E-08 9.30911E-25
 -1       110 1.62561E-08 6.83661E-08 9.95369E-25
 -1       111 1.73417E-08 6.94579E-08 1.06184E-24
 -1       112 1.84572E-08 7.06925E-08 1.13014E-24
 -1       113 1.95995E-08 7.21005E-08 1.20009E-24
 -1       114 2.07648E-08 7.37141E-08 1.27144E-24
 -1       115 2.19488E-08 7.55678E-08 1.34393E-24
 -1       116 2.31462E-08 7.76979E-08 1.41725E-24
 -1       117 2.43510E-08 8.01429E-08 1.49102E-24
 -1       118 2.55564E-08 8.29434E-08 1.56483E-24
 -1       119 2.67547E-08 8.61413E-08 1.63820E-24
 -1       120 2.79375E-08 8.97796E-08 1.71062E-24
 -1       121 2.90962E-08 9.39012E-08 1.78157E-24
 -1       122 3.02219E-08 9.85475E-08 1.85050E-24
 -1       123 3.13068E-08 1.03756E-07 1.91692E-24
 -1       124 3.23439E-08 1.09556E-07 1.98043E-24
 -1       125 3.33288E-08 1.15967E-07 2.04074E-24
 -1       126 3.42596E-08 1.22986E-07 2.09773E-24
 -1       127 3.51370E-08 1.30587E-07 2.15145E-24
 -1       128 3.59609E-08 1.38699E-07 2.20190E-24
 -1       129 3.67218E-08 1.47199E-07 2.24848E-24
 -1       130 3.73785E-08 1.55878E-07 2.28870E-24
 -1       131 3.78536E-08 1.64205E-07 2.31779E-24
 -1       201 7.41384E-09 5.52216E-08 4.53952E-25
 -1       202 7.87231E-09 5.62573E-08 4.82024E-25
 -1       203 8.45299E-09 5.71845E-08 5.17579E-25
 -1       204 9.11258E-09 5.80297E-08 5.57966E-25
 -1       205 9.82998E-09 5.88266E-08 6.01893E-25
 -1       206 1.05929E-08 5.96028E-08 6.48607E-25
 -1       207 1.13932E-08 6.03837E-08 6.97611E-25
 -1       208 1.22252E-08 6.11939E-08 7.48555E-25
 -1       209 1.30847E-08 6.20574E-08 8.01180E-25
 -1       210 1.39682E-08 6.29989E-08 8.55279E-25
 -1       211 1.48730E-08 6.40440E-08 9.10680E-25
 -1       212 1.57964E-08 6.52192E-08 9.67221E-25
 -1       213 1.67358E-08 6.65525E-08 1.02474E-24
 -1       214 1.76884E-08 6.80735E-08 1.08307E-24
 -1       215 1.86511E-08 6.98134E-08 1.14201E-24
 -1       216 1.96206E-08 7.18054E-08 1.20138E-24
 -1       217 2.05932E-08 7.40848E-08 1.26093E-24
 -1       218 2.15648E-08 7.66885E-08 1.32042E-24
 -1       219 2.25312E-08 7.96552E-08 1.37959E-24
 -1       220 2.34878E-08 8.30247E-08 1.43817E-24
 -1       221 2.44304E-08 8.68377E-08 1.49588E-24
 -1       222 2.53544E-08 9.11344E-08 1.55246E-24
 -1       223 2.62561E-08 9.59536E-08 1.60767E-24
 -1       224 2.71316E-08 1.01331E-07 1.66127E-24
 -1       225 2.79773E-08 1.07296E-07 1.71306E-24
 -1       226 2.87883E-08 1.13870E-07 1.76272E-24
 -1       227 2.95555E-08 1.21067E-07 1.80969E-24
 -1       228 3.02583E-08 1.28889E-07 1.85272E-24
 -1       229 3.08484E-08 1.37337E-07 1.88886E-24
 -1       230 3.12097E-08 1.46435E-07 1.91098E-24
 -1       231 3.09501E-08 1.56431E-07 1.89509E-24
 -1       301 6.11990E-09 5.00452E-08 3.74723E-25
 -1       302 6.56662E-09 5.11447E-08 4.02076E-25
 -1       303 7.07778E-09 5.20745E-08 4.33374E-25
 -1       304 7.64652E-09 5.29106E-08 4.68199E-25
 -1       305 8.25931E-09 5.36911E-08 5.05720E-25
 -1       306 8.90611E-09 5.44467E-08 5.45324E-25
 -1       307 9.57972E-09 5.52030E-08 5.86569E-25
 -1       308 1.02749E-08 5.59838E-08 6.29133E-25
 -1       309 1.09875E-08 5.68121E-08 6.72770E-25
 -1       310 1.17145E-08 5.77107E-08 7.17285E-25
 -1       311 1.24533E-08 5.87031E-08 7.62519E-25
 -1       312 1.32015E-08 5.98136E-08 8.08335E-25
 -1       313 1.39572E-08 6.10676E-08 8.54606E-25
 -1       314 1.47184E-08 6.24919E-08 9.01214E-25
 -1       315 1.54832E-08 6.41150E-08 9.48039E-25
 -1       316 1.62495E-08 6.59671E-08 9.94964E-25
 -1       317 1.70155E-08 6.80800E-08 1.04187E-24
 -1       318 1.77792E-08 7.04876E-08 1.08863E-24
 -1       319 1.85386E-08 7.32251E-08 1.13512E-24
 -1       320 1.92917E-08 7.63297E-08 1.18124E-24
 -1       321 2.00367E-08 7.98396E-08 1.22686E-24
 -1       322 2.07717E-08 8.37940E-08 1.27186E-24
 -1       323 2.14943E-08 8.82322E-08 1.31610E-24
 -1       324 2.22015E-08 9.31935E-08 1.35941E-24
 -1       325 2.28885E-08 9.87163E-08 1.40147E-24
 -1       326 2.35460E-08 1.04839E-07 1.44173E-24
 -1       327 2.41565E-08 1.11601E-07 1.47911E-24
 -1       328 2.46861E-08 1.19049E-07 1.51154E-24
 -1       329 2.50693E-08 1.27253E-07 1.53500E-24
 -1       330 2.51769E-08 1.36349E-07 1.54159E-24
 -1       331 2.47958E-08 1.46630E-07 1.51825E-24
 -1       401 4.77002E-09 4.50575E-08 2.92070E-25
 -1       402 5.20029E-09 4.61681E-08 3.18415E-25
 -1       403 5.66900E-09 4.70963E-08 3.47115E-25
 -1       404 6.16752E-09 4.79156E-08 3.77639E-25
 -1       405 6.69120E-09 4.86729E-08 4.09704E-25
 -1       406 7.23474E-09 4.94008E-08 4.42985E-25
 -1       407 7.79346E-09 5.01255E-08 4.77196E-25
 -1       408 8.36351E-09 5.08702E-08 5.12100E-25
 -1       409 8.94176E-09 5.16565E-08 5.47507E-25
 -1       410 9.52568E-09 5.25058E-08 5.83260E-25
 -1       411 1.01132E-08 5.34395E-08 6.19233E-25
 -1       412 1.07025E-08 5.44796E-08 6.55320E-25
 -1       413 1.12924E-08 5.56493E-08 6.91435E-25
 -1       414 1.18814E-08 5.69727E-08 7.27503E-25
 -1       415 1.24687E-08 5.84757E-08 7.63465E-25
 -1       416 1.30535E-08 6.01853E-08 7.99269E-25
 -1       417 1.36350E-08 6.21305E-08 8.34874E-25
 -1       418 1.42127E-08 6.43420E-08 8.70251E-25
 -1       419 1.47864E-08 6.68522E-08 9.05375E-25
 -1       420 1.53557E-08 6.96952E-08 9.40232E-25
 -1       421 1.59202E-08 7.29073E-08 9.74802E-25
 -1       422 1.64796E-08 7.65260E-08 1.00905E-24
 -1       423 1.70324E-08 8.05909E-08 1.04290E-24
 -1       424 1.75760E-08 8.51437E-08 1.07618E-24
 -1       425 1.81045E-08 9.02284E-08 1.10854E-24
 -1       426 1.86071E-08 9.58936E-08 1.13932E-24
 -1       427 1.90639E-08 1.02196E-07 1.16729E-24
 -1       428 1.94396E-08 1.09206E-07 1.19029E-24
 -1       429 1.96749E-08 1.17025E-07 1.20470E-24
 -1       430 1.96764E-08 1.25810E-07 1.20479E-24
 -1       431 1.93086E-08 1.35821E-07 1.18227E-24
 -1       501 3.41731E-09 4.02595E-08 2.09243E-25
 -1       502 3.83346E-09 4.13451E-08 2.34724E-25
 -1       503 4.26375E-09 4.22516E-08 2.61071E-25
 -1       504 4.70371E-09 4.30452E-08 2.88010E-25
 -1       505 5.15106E-09 4.37720E-08 3.15401E-25
 -1       506 5.60393E-09 4.44656E-08 3.43131E-25
 -1       507 6.06021E-09 4.51522E-08 3.71069E-25
 -1       508 6.51777E-09 4.58544E-08 3.99085E-25
 -1       509 6.97470E-09 4.65924E-08 4.27063E-25
 -1       510 7.42933E-09 4.73862E-08 4.54900E-25
 -1       511 7.88029E-09 4.82552E-08 4.82513E-25
 -1       512 8.32654E-09 4.92196E-08 5.09837E-25
 -1       513 8.76728E-09 5.03000E-08 5.36824E-25
 -1       514 9.20204E-09 5.15183E-08 5.63444E-25
 -1       515 9.63060E-09 5.28975E-08 5.89685E-25
 -1       516 1.00530E-08 5.44621E-08 6.15550E-25
 -1       517 1.04697E-08 5.62381E-08 6.41062E-25
 -1       518 1.08811E-08 5.82533E-08 6.66256E-25
 -1       519 1.12882E-08 6.05373E-08 6.91181E-25
 -1       520 1.16919E-08 6.31215E-08 7.15896E-25
 -1       521 1.20929E-08 6.60399E-08 7.40454E-25
 -1       522 1.24920E-08 6.93284E-08 7.64888E-25
 -1       523 1.28887E-08 7.30261E-08 7.89179E-25
 -1       524 1.32811E-08 7.71753E-08 8.13204E-25
 -1       525 1.36642E-08 8.18233E-08 8.36664E-25
 -1       526 1.40284E-08 8.70240E-08 8.58962E-25
 -1       527 1.43564E-08 9.28420E-08 8.79045E-25
 -1       528 1.46198E-08 9.93588E-08 8.95174E-25
 -1       529 1.47751E-08 1.06683E-07 9.04685E-25
 -1       530 1.47605E-08 1.14965E-07 9.03791E-25
 -1       531 1.44982E-08 1.24421E-07 8.87729E-25
 -1       601 2.10116E-09 3.56452E-08 1.28655E-25
 -1       602 2.50355E-09 3.66791E-08 1.53293E-25
 -1       603 2.89875E-09 3.75444E-08 1.77491E-25
 -1       604 3.28641E-09 3.82997E-08 2.01228E-25
 -1       605 3.66677E-09 3.89874E-08 2.24517E-25
 -1       606 4.03990E-09 3.96397E-08 2.47364E-25
 -1       607 4.40554E-09 4.02819E-08 2.69753E-25
 -1       608 4.76308E-09 4.09353E-08 2.91645E-25
 -1       609 5.11176E-09 4.16192E-08 3.12995E-25
 -1       610 5.45088E-09 4.23517E-08 3.33759E-25
 -1       611 5.77984E-09 4.31506E-08 3.53901E-25
 -1       612 6.09824E-09 4.40341E-08 3.73397E-25
 -1       613 6.40597E-09 4.50205E-08 3.92239E-25
 -1       614 6.70318E-09 4.61295E-08 4.10438E-25
 -1       615 6.99037E-09 4.73816E-08 4.28022E-25
 -1       616 7.26834E-09 4.87986E-08 4.45043E-25
 -1       617 7.53825E-09 5.04038E-08 4.61569E-25
 -1       618 7.80158E-09 5.22222E-08 4.77693E-25
 -1       619 8.06009E-09 5.42806E-08 4.93522E-25
 -1       620 8.31571E-09 5.66080E-08 5.09174E-25
 -1       621 8.57040E-09 5.92356E-08 5.24768E-25
 -1       622 8.82582E-09 6.21976E-08 5.40408E-25
 -1       623 9.08295E-09 6.55315E-08 5.56152E-25
 -1       624 9.34137E-09 6.92794E-08 5.71975E-25
 -1       625 9.59836E-09 7.34888E-08 5.87711E-25
 -1       626 9.84762E-09 7.82152E-08 6.02973E-25
 -1       627 1.00777E-08 8.35254E-08 6.17059E-25
 -1       628 1.02700E-08 8.95016E-08 6.28838E-25
 -1       629 1.03979E-08 9.62490E-08 6.36668E-25
 -1       630 1.04261E-08 1.03903E-07 6.38393E-25
 -1       631 1.03141E-08 1.12642E-07 6.31533E-25
 -1       701 8.51522E-10 3.12050E-08 5.21390E-26
 -1       702 1.24092E-09 3.21663E-08 7.59822E-26
 -1       703 1.60398E-09 3.29734E-08 9.82123E-26
 -1       704 1.94465E-09 3.36775E-08 1.19071E-25
 -1       705 2.26553E-09 3.43167E-08 1.38719E-25
 -1       706 2.56836E-09 3.49201E-08 1.57262E-25
 -1       707 2.85419E-09 3.55113E-08 1.74763E-25
 -1       708 3.12356E-09 3.61102E-08 1.91257E-25
 -1       709 3.37672E-09 3.67343E-08 2.06757E-25
 -1       710 3.61377E-09 3.74003E-08 2.21273E-25
 -1       711 3.83486E-09 3.81241E-08 2.34810E-25
 -1       712 4.04024E-09 3.89219E-08 2.47385E-25
 -1       713 4.23039E-09 3.98101E-08 2.59028E-25
 -1       714 4.40607E-09 4.08059E-08 2.69785E-25
 -1       715 4.56837E-09 4.19277E-08 2.79723E-25
 -1       716 4.71876E-09 4.31945E-08 2.88931E-25
 -1       717 4.85909E-09 4.46272E-08 2.97523E-25
 -1       718 4.99158E-09 4.62481E-08 3.05636E-25
 -1       719 5.11883E-09 4.80811E-08 3.13428E-25
 -1       720 5.24373E-09 5.01525E-08 3.21075E-25
 -1       721 5.36929E-09 5.24910E-08 3.28763E-25
 -1       722 5.49850E-09 5.51284E-08 3.36675E-25
 -1       723 5.63396E-09 5.81000E-08 3.44969E-25
 -1       724 5.77746E-09 6.14459E-08 3.53756E-25
 -1       725 5.92941E-09 6.52122E-08 3.63059E-25
 -1       726 6.08809E-09 6.94529E-08 3.72776E-25
 -1       727 6.24893E-09 7.42323E-08 3.82624E-25
 -1       728 6.40387E-09 7.96289E-08 3.92111E-25
 -1       729 6.54118E-09 8.57387E-08 4.00518E-25
 -1       730 6.64643E-09 9.26810E-08 4.06963E-25
 -1       731 6.70524E-09 1.00602E-07 4.10564E-25
 -1       801-3.06470E-10 2.69262E-08-1.87652E-26
 -1       802 7.08618E-11 2.77982E-08 4.33889E-27
 -1       803 4.04927E-10 2.85327E-08 2.47938E-26
 -1       804 7.03685E-10 2.91739E-08 4.30869E-26
 -1       805 9.72046E-10 2.97551E-08 5.95187E-26
 -1       806 1.21320E-09 3.03020E-08 7.42845E-26
 -1       807 1.42927E-09 3.08359E-08 8.75146E-26
 -1       808 1.62170E-09 3.13744E-08 9.92972E-26
 -1       809 1.79151E-09 3.19336E-08 1.09695E-25
 -1       810 1.93951E-09 3.25281E-08 1.18757E-25
 -1       811 2.06645E-09 3.31722E-08 1.26529E-25
 -1       812 2.17316E-09 3.38801E-08 1.33063E-25
 -1       813 2.26065E-09 3.46661E-08 1.38420E-25
 -1       814 2.33022E-09 3.55454E-08 1.42680E-25
 -1       815 2.38351E-09 3.65338E-08 1.45943E-25
 -1       816 2.42253E-09 3.76482E-08 1.48332E-25
 -1       817 2.44976E-09 3.89067E-08 1.50000E-25
 -1       818 2.46812E-09 4.03289E-08 1.51123E-25
 -1       819 2.48097E-09 4.19362E-08 1.51910E-25
 -1       820 2.49212E-09 4.37518E-08 1.52593E-25
 -1       821 2.50574E-09 4.58017E-08 1.53427E-25
 -1       822 2.52623E-09 4.81148E-08 1.54682E-25
 -1       823 2.55808E-09 5.07234E-08 1.56632E-25
 -1       824 2.60564E-09 5.36648E-08 1.59544E-25
 -1       825 2.67284E-09 5.69818E-08 1.63659E-25
 -1       826 2.76294E-09 6.07245E-08 1.69175E-25
 -1       827 2.87832E-09 6.49525E-08 1.76240E-25
 -1       828 3.02050E-09 6.97369E-08 1.84946E-25
 -1       829 3.19056E-09 7.51631E-08 1.95359E-25
 -1       830 3.39028E-09 8.13336E-08 2.07588E-25
 -1       831 3.62420E-09 8.83696E-08 2.21911E-25
 -1       901-1.35149E-09 2.27936E-08-8.27524E-26
 -1       902-9.85122E-10 2.35629E-08-6.03193E-26
 -1       903-6.76686E-10 2.42129E-08-4.14337E-26
 -1       904-4.14653E-10 2.47810E-08-2.53894E-26
 -1       905-1.92019E-10 2.52955E-08-1.17574E-26
 -1       906-4.27386E-12 2.57787E-08-2.61690E-28
 -1       907 1.51633E-10 2.62489E-08 9.28453E-27
 -1       908 2.77865E-10 2.67218E-08 1.70137E-26
 -1       909 3.76057E-10 2.72111E-08 2.30261E-26
 -1       910 4.47565E-10 2.77297E-08 2.74046E-26
 -1       911 4.93647E-10 2.82900E-08 3.02262E-26
 -1       912 5.15611E-10 2.89041E-08 3.15710E-26
 -1       913 5.14938E-10 2.95845E-08 3.15298E-26
 -1       914 4.93375E-10 3.03442E-08 3.02095E-26
 -1       915 4.53026E-10 3.11967E-08 2.77389E-26
 -1       916 3.96422E-10 3.21564E-08 2.42731E-26
 -1       917 3.26576E-10 3.32390E-08 1.99963E-26
 -1       918 2.47038E-10 3.44614E-08 1.51262E-26
 -1       919 1.61931E-10 3.58421E-08 9.91507E-27
 -1       920 7.59666E-11 3.74015E-08 4.65146E-27
 -1       921-5.54529E-12 3.91624E-08-3.39540E-28
 -1       922-7.67133E-11 4.11502E-08-4.69718E-27
 -1       923-1.31088E-10 4.33940E-08-8.02654E-27
 -1       924-1.61693E-10 4.59269E-08-9.90051E-27
 -1       925-1.61040E-10 4.87873E-08-9.86052E-27
 -1       926-1.21082E-10 5.20202E-08-7.41391E-27
 -1       927-3.30587E-11 5.56784E-08-2.02420E-27
 -1       928 1.12872E-10 5.98242E-08 6.91117E-27
 -1       929 3.28308E-10 6.45313E-08 2.01024E-26
 -1       930 6.27699E-10 6.98862E-08 3.84342E-26
 -1       931 1.02991E-09 7.59896E-08 6.30618E-26
 -1      1001-2.26551E-09 1.87901E-08-1.38718E-25
 -1      1002-1.90880E-09 1.94460E-08-1.16876E-25
 -1      1003-1.62242E-09 2.00016E-08-9.93412E-26
 -1      1004-1.39178E-09 2.04878E-08-8.52194E-26
 -1      1005-1.20805E-09 2.09281E-08-7.39695E-26
 -1      1006-1.06556E-09 2.13411E-08-6.52445E-26
 -1      1007-9.60461E-10 2.17421E-08-5.88093E-26
 -1      1008-8.90001E-10 2.21443E-08-5.44950E-26
 -1      1009-8.52052E-10 2.25593E-08-5.21714E-26
 -1      1010-8.44827E-10 2.29980E-08-5.17290E-26
 -1      1011-8.66665E-10 2.34708E-08-5.30662E-26
 -1      1012-9.15875E-10 2.39879E-08-5.60793E-26
 -1      1013-9.90595E-10 2.45597E-08-6.06544E-26
 -1      1014-1.08870E-09 2.51970E-08-6.66612E-26
 -1      1015-1.20767E-09 2.59112E-08-7.39460E-26
 -1      1016-1.34455E-09 2.67143E-08-8.23275E-26
 -1      1017-1.49584E-09 2.76194E-08-9.15907E-26
 -1      1018-1.65741E-09 2.86407E-08-1.01483E-25
 -1      1019-1.82443E-09 2.97938E-08-1.11711E-25
 -1      1020-1.99135E-09 3.10960E-08-1.21931E-25
 -1      1021-2.15173E-09 3.25667E-08-1.31751E-25
 -1      1022-2.29826E-09 3.42277E-08-1.40723E-25
 -1      1023-2.42260E-09 3.61039E-08-1.48337E-25
 -1      1024-2.51529E-09 3.82238E-08-1.54012E-25
 -1      1025-2.56555E-09 4.06205E-08-1.57090E-25
 -1      1026-2.56106E-09 4.33326E-08-1.56814E-25
 -1      1027-2.48752E-09 4.64051E-08-1.52312E-25
 -1      1028-2.32818E-09 4.98908E-08-1.42555E-25
 -1      1029-2.06297E-09 5.38511E-08-1.26316E-25
 -1      1030-1.66751E-09 5.83577E-08-1.02102E-25
 -1      1031-1.11187E-09 6.34926E-08-6.80804E-26
 -1      1101-3.03348E-09 1.48966E-08-1.85741E-25
 -1      1102-2.68496E-09 1.54306E-08-1.64401E-25
 -1      1103-2.41689E-09 1.58840E-08-1.47987E-25
 -1      1104-2.21217E-09 1.62813E-08-1.35452E-25
 -1      1105-2.06044E-09 1.66411E-08-1.26161E-25
 -1      1106-1.95505E-09 1.69783E-08-1.19708E-25
 -1      1107-1.89151E-09 1.73052E-08-1.15818E-25
 -1      1108-1.86657E-09 1.76323E-08-1.14291E-25
 -1      1109-1.87772E-09 1.79692E-08-1.14973E-25
 -1      1110-1.92283E-09 1.83245E-08-1.17736E-25
 -1      1111-1.99994E-09 1.87067E-08-1.22457E-25
 -1      1112-2.10704E-09 1.91239E-08-1.29015E-25
 -1      1113-2.24198E-09 1.95845E-08-1.37277E-25
 -1      1114-2.40232E-09 2.00973E-08-1.47095E-25
 -1      1115-2.58522E-09 2.06711E-08-1.58294E-25
 -1      1116-2.78734E-09 2.13159E-08-1.70670E-25
 -1      1117-3.00476E-09 2.20420E-08-1.83982E-25
 -1      1118-3.23284E-09 2.28609E-08-1.97948E-25
 -1      1119-3.46616E-09 2.37852E-08-2.12234E-25
 -1      1120-3.69836E-09 2.48290E-08-2.26452E-25
 -1      1121-3.92203E-09 2.60081E-08-2.40147E-25
 -1      1122-4.12855E-09 2.73402E-08-2.52792E-25
 -1      1123-4.30789E-09 2.88458E-08-2.63774E-25
 -1      1124-4.44841E-09 3.05482E-08-2.72378E-25
 -1      1125-4.53650E-09 3.24745E-08-2.77772E-25
 -1      1126-4.55622E-09 3.46563E-08-2.78979E-25
 -1      1127-4.48876E-09 3.71300E-08-2.74848E-25
 -1      1128-4.31178E-09 3.99382E-08-2.64012E-25
 -1      1129-3.99859E-09 4.31304E-08-2.44835E-25
 -1      1130-3.51714E-09 4.67635E-08-2.15356E-25
 -1      1131-2.82888E-09 5.09026E-08-1.73213E-25
 -1      1201-3.64327E-09 1.10927E-08-2.23078E-25
 -1      1202-3.30129E-09 1.14985E-08-2.02139E-25
 -1      1203-3.04763E-09 1.18436E-08-1.86607E-25
 -1      1204-2.86321E-09 1.21464E-08-1.75315E-25
 -1      1205-2.73648E-09 1.24206E-08-1.67555E-25
 -1      1206-2.66002E-09 1.26775E-08-1.62874E-25
 -1      1207-2.62881E-09 1.29262E-08-1.60963E-25
 -1      1208-2.63924E-09 1.31748E-08-1.61601E-25
 -1      1209-2.68848E-09 1.34303E-08-1.64617E-25
 -1      1210-2.77417E-09 1.36994E-08-1.69863E-25
 -1      1211-2.89409E-09 1.39884E-08-1.77206E-25
 -1      1212-3.04602E-09 1.43034E-08-1.86509E-25
 -1      1213-3.22759E-09 1.46507E-08-1.97626E-25
 -1      1214-3.43610E-09 1.50370E-08-2.10393E-25
 -1      1215-3.66846E-09 1.54689E-08-2.24621E-25
 -1      1216-3.92103E-09 1.59538E-08-2.40086E-25
 -1      1217-4.18956E-09 1.64996E-08-2.56528E-25
 -1      1218-4.46899E-09 1.71149E-08-2.73638E-25
 -1      1219-4.75338E-09 1.78094E-08-2.91051E-25
 -1      1220-5.03571E-09 1.85936E-08-3.08338E-25
 -1      1221-5.30775E-09 1.94795E-08-3.24995E-25
 -1      1222-5.55980E-09 2.04807E-08-3.40428E-25
 -1      1223-5.78044E-09 2.16128E-08-3.53938E-25
 -1      1224-5.95623E-09 2.28936E-08-3.64702E-25
 -1      1225-6.07131E-09 2.43438E-08-3.71748E-25
 -1      1226-6.10688E-09 2.59872E-08-3.73926E-25
 -1      1227-6.04061E-09 2.78516E-08-3.69869E-25
 -1      1228-5.84595E-09 2.99691E-08-3.57949E-25
 -1      1229-5.49119E-09 3.23770E-08-3.36228E-25
 -1      1230-4.93851E-09 3.51176E-08-3.02387E-25
 -1      1231-4.14286E-09 3.82398E-08-2.53669E-25
 -1      1301-4.08548E-09 7.35686E-09-2.50155E-25
 -1      1302-3.74829E-09 7.62986E-09-2.29509E-25
 -1      1303-3.50500E-09 7.86236E-09-2.14612E-25
 -1      1304-3.33516E-09 8.06643E-09-2.04213E-25
 -1      1305-3.22635E-09 8.25135E-09-1.97551E-25
 -1      1306-3.17060E-09 8.42450E-09-1.94137E-25
 -1      1307-3.16251E-09 8.59205E-09-1.93641E-25
 -1      1308-3.19818E-09 8.75931E-09-1.95825E-25
 -1      1309-3.27459E-09 8.93106E-09-2.00504E-25
 -1      1310-3.38919E-09 9.11170E-09-2.07521E-25
 -1      1311-3.53961E-09 9.30545E-09-2.16731E-25
 -1      1312-3.72347E-09 9.51646E-09-2.27989E-25
 -1      1313-3.93823E-09 9.74894E-09-2.41139E-25
 -1      1314-4.18102E-09 1.00072E-08-2.56005E-25
 -1      1315-4.44857E-09 1.02959E-08-2.72388E-25
 -1      1316-4.73704E-09 1.06198E-08-2.90050E-25
 -1      1317-5.04189E-09 1.09843E-08-3.08716E-25
 -1      1318-5.35777E-09 1.13951E-08-3.28058E-25
 -1      1319-5.67835E-09 1.18587E-08-3.47687E-25
 -1      1320-5.99613E-09 1.23822E-08-3.67145E-25
 -1      1321-6.30223E-09 1.29736E-08-3.85888E-25
 -1      1322-6.58616E-09 1.36422E-08-4.03273E-25
 -1      1323-6.83547E-09 1.43984E-08-4.18538E-25
 -1      1324-7.03540E-09 1.52542E-08-4.30780E-25
 -1      1325-7.16844E-09 1.62236E-08-4.38926E-25
 -1      1326-7.21373E-09 1.73226E-08-4.41699E-25
 -1      1327-7.14648E-09 1.85699E-08-4.37581E-25
 -1      1328-6.93713E-09 1.99870E-08-4.24763E-25
 -1      1329-6.55049E-09 2.15986E-08-4.01089E-25
 -1      1330-5.94471E-09 2.34332E-08-3.63996E-25
 -1      1331-5.07013E-09 2.55230E-08-3.10445E-25
 -1      1401-4.35347E-09 3.66691E-09-2.66564E-25
 -1      1402-4.01918E-09 3.80414E-09-2.46096E-25
 -1      1403-3.78215E-09 3.92109E-09-2.31582E-25
 -1      1404-3.62110E-09 4.02380E-09-2.21721E-25
 -1      1405-3.52307E-09 4.11688E-09-2.15719E-25
 -1      1406-3.47976E-09 4.20402E-09-2.13067E-25
 -1      1407-3.48554E-09 4.28832E-09-2.13421E-25
 -1      1408-3.53636E-09 4.37242E-09-2.16532E-25
 -1      1409-3.62906E-09 4.45871E-09-2.22208E-25
 -1      1410-3.76098E-09 4.54941E-09-2.30286E-25
 -1      1411-3.92967E-09 4.64662E-09-2.40615E-25
 -1      1412-4.13265E-09 4.75243E-09-2.53043E-25
 -1      1413-4.36728E-09 4.86895E-09-2.67410E-25
 -1      1414-4.63060E-09 4.99834E-09-2.83533E-25
 -1      1415-4.91921E-09 5.14289E-09-3.01205E-25
 -1      1416-5.22914E-09 5.30506E-09-3.20182E-25
 -1      1417-5.55571E-09 5.48749E-09-3.40178E-25
 -1      1418-5.89337E-09 5.69308E-09-3.60853E-25
 -1      1419-6.23554E-09 5.92505E-09-3.81804E-25
 -1      1420-6.57443E-09 6.18701E-09-4.02555E-25
 -1      1421-6.90078E-09 6.48299E-09-4.22537E-25
 -1      1422-7.20357E-09 6.81762E-09-4.41077E-25
 -1      1423-7.46974E-09 7.19617E-09-4.57375E-25
 -1      1424-7.68372E-09 7.62468E-09-4.70477E-25
 -1      1425-7.82700E-09 8.11018E-09-4.79250E-25
 -1      1426-7.87751E-09 8.66072E-09-4.82342E-25
 -1      1427-7.80894E-09 9.28568E-09-4.78144E-25
 -1      1428-7.58997E-09 9.99580E-09-4.64736E-25
 -1      1429-7.18335E-09 1.08035E-08-4.39839E-25
 -1      1430-6.54484E-09 1.17230E-08-4.00742E-25
 -1      1431-5.62203E-09 1.27705E-08-3.44239E-25
 -1      1501-4.44324E-09 0.00000E+00-2.72061E-25
 -1      1502-4.10993E-09 0.00000E+00-2.51652E-25
 -1      1503-3.87499E-09 0.00000E+00-2.37267E-25
 -1      1504-3.71687E-09 0.00000E+00-2.27585E-25
 -1      1505-3.62244E-09 0.00000E+00-2.21803E-25
 -1      1506-3.58328E-09 0.00000E+00-2.19405E-25
 -1      1507-3.59369E-09 0.00000E+00-2.20043E-25
 -1      1508-3.64955E-09 0.00000E+00-2.23463E-25
 -1      1509-3.74768E-09 0.00000E+00-2.29472E-25
 -1      1510-3.88538E-09 0.00000E+00-2.37903E-25
 -1      1511-4.06015E-09 0.00000E+00-2.48604E-25
 -1      1512-4.26950E-09 0.00000E+00-2.61423E-25
 -1      1513-4.51074E-09 0.00000E+00-2.76194E-25
 -1      1514-4.78089E-09 0.00000E+00-2.92736E-25
 -1      1515-5.07652E-09 0.00000E+00-3.10837E-25
 -1      1516-5.39359E-09 0.00000E+00-3.30251E-25
 -1      1517-5.72739E-09 0.00000E+00-3.50690E-25
 -1      1518-6.07229E-09 0.00000E+00-3.71808E-25
 -1      1519-6.42164E-09 0.00000E+00-3.93199E-25
 -1      1520-6.76754E-09 0.00000E+00-4.14379E-25
 -1      1521-7.10060E-09 0.00000E+00-4.34772E-25
 -1      1522-7.40964E-09 0.00000E+00-4.53694E-25
 -1      1523-7.68137E-09 0.00000E+00-4.70333E-25
 -1      1524-7.89997E-09 0.00000E+00-4.83717E-25
 -1      1525-8.04657E-09 0.00000E+00-4.92694E-25
 -1      1526-8.09870E-09 0.00000E+00-4.95886E-25
 -1      1527-8.02957E-09 0.00000E+00-4.91653E-25
 -1      1528-7.80727E-09 0.00000E+00-4.78042E-25
 -1      1529-7.39386E-09 0.00000E+00-4.52728E-25
 -1      1530-6.74429E-09 0.00000E+00-4.12955E-25
 -1      1531-5.80526E-09 0.00000E+00-3.55458E-25
 -3
    1PSTEP                        12           6           1          
  100CL  106 6.00000E-01         496                     0    6           1
 -4  STRESS      6    1
 -5  SXX         1    4    1    1
 -5  SYY         1    4    2    2
 -5  SZZ         1    4    3    3
 -5  SXY         1    4    1    2
 -5  SYZ         1    4    2    3
 -5  SZX         1    4    3    1
 -1         1 2.14513E+04-2.77911E+05 1.54153E+05-2.85901E+03-7.99832E-11 2.78593E-10
 -1         2 2.23321E+04-2.84520E+05 1.27895E+05-2.39995E+03-7.76855E-10-1.12953E-11
 -1         3 3.84813E+04-2.83057E+05 1.17514E+05-4.17753E+03 1.74484E-09 5.36594E-10
 -1         4 5.18429E+04-2.82204E+05 1.11342E+05-6.07370E+03-2.20299E-10-1.08065E-10
 -1         5 6.43933E+04-2.81365E+05 1.08361E+05-7.91168E+03-1.05413E-09 9.51922E-11
 -1         6 7.69614E+04-2.80295E+05 1.07862E+05-9.58401E+03 1.71472E-09-1.92659E-10
 -1         7 8.98778E+04-2.78931E+05 1.09327E+05-1.10509E+04-3.46057E-10-9.24388E-11
 -1         8 1.03261E+05-2.77276E+05 1.12370E+05-1.23071E+04-7.79338E-10-2.01144E-10
 -1         9 1.17132E+05-2.75355E+05 1.16700E+05-1.33564E+04 2.73281E-10-6.78802E-11
 -1        10 1.31458E+05-2.73201E+05 1.22091E+05-1.42010E+04-9.58340E-10-1.50033E-10
 -1        11 1.46174E+05-2.70844E+05 1.28359E+05-1.48359E+04 3.94835E-10 2.00796E-10
 -1        12 1.61185E+05-2.68318E+05 1.35345E+05-1.52476E+04-1.41213E-11 2.78495E-10
 -1        13 1.76363E+05-2.65655E+05 1.42906E+05-1.54128E+04 3.98211E-10 2.42781E-10
 -1        14 1.91543E+05-2.62896E+05 1.50897E+05-1.52977E+04-3.17668E-10-2.68058E-10
 -1        15 2.06508E+05-2.60086E+05 1.59170E+05-1.48583E+04-6.33122E-10 3.30118E-10
 -1        16 2.20985E+05-2.57287E+05 1.67558E+05-1.40392E+04 5.45065E-10 1.66355E-10
 -1        17 2.34628E+05-2.54575E+05 1.75868E+05-1.27744E+04 6.99529E-10-3.38619E-11
 -1        18 2.47003E+05-2.52050E+05 1.83874E+05-1.09864E+04-5.41140E-10-9.83391E-11
 -1        19 2.57570E+05-2.49839E+05 1.91306E+05-8.58832E+03 3.86692E-10 3.49802E-11
 -1        20 2.65668E+05-2.48102E+05 1.97837E+05-5.48621E+03-1.69859E-09-5.62064E-10
 -1        21 2.70490E+05-2.47037E+05 2.03079E+05-1.58558E+03-2.49071E-10 7.16576E-11
 -1        22 2.71079E+05-2.46876E+05 2.06575E+05 3.19576E+03 1.27980E-10 1.06211E-10
 -1        23 2.66319E+05-2.47876E+05 2.07796E+05 8.90403E+03 8.05448E-10 3.19263E-10
 -1        24 2.54964E+05-2.50280E+05 2.06164E+05 1.55044E+04-1.61022E-09-3.02830E-10
 -1        25 2.35730E+05-2.54246E+05 2.01097E+05 2.27975E+04 1.69033E-09 5.57282E-10
 -1        26 2.07495E+05-2.59658E+05 1.92128E+05 3.02620E+04 1.61029E-09 3.79149E-10
 -1        27 1.69752E+05-2.65761E+05 1.79158E+05 3.67510E+04 1.48679E-10 2.59547E-10
 -1        28 1.23537E+05-2.70372E+05 1.62986E+05 3.99060E+04 6.96388E-10 2.23310E-10
 -1        29 7.33543E+04-2.68275E+05 1.46402E+05 3.50827E+04-8.14578E-10-5.22212E-11
 -1        30 3.24648E+04-2.47724E+05 1.36897E+05 1.65707E+04 1.23156E-09 3.97933E-10
 -1        31 2.90834E+04-2.00348E+05 1.45760E+05 4.13639E+03 5.74144E-10-3.95449E-11
 -1       101 8.54527E+03-2.97602E+05 6.78700E+04-7.99346E+02-1.11941E-09-3.22695E-10
 -1       102 9.74033E+03-2.98430E+05 5.72307E+04-3.25360E+03 1.84542E-10-1.25997E-11
 -1       103 1.62971E+04-2.97791E+05 5.21240E+04-7.15741E+03-9.85478E-10-2.45114E-10
 -1       104 2.18379E+04-2.97982E+05 4.88772E+04-1.05868E+04-3.11298E-10 6.45812E-11
 -1       105 2.65139E+04-2.98703E+05 4.67725E+04-1.35627E+04-2.32638E-10-3.07896E-10
 -1       106 3.05254E+04-2.99775E+05 4.54111E+04-1.61237E+04-1.45142E-10 1.28649E-10
 -1       107 3.40499E+04-3.01092E+05 4.45573E+04-1.83054E+04 1.98968E-10-3.12067E-10
 -1       108 3.72090E+04-3.02601E+05 4.40592E+04-2.01308E+04-4.86505E-10-1.10136E-11
 -1       109 4.00710E+04-3.04278E+05 4.38093E+04-2.16108E+04 2.27017E-10-1.40840E-12
 -1       110 4.26605E+04-3.06120E+05 4.37246E+04-2.27441E+04-2.83364E-11 6.84223E-11
 -1       111 4.49686E+04-3.08132E+05 4.37359E+04-2.35166E+04-4.63350E-10-6.49037E-11
 -1       112 4.69608E+04-3.10328E+05 4.37823E+04-2.39012E+04-5.23952E-11-1.90082E-10
 -1       113 4.85834E+04-3.12725E+05 4.38073E+04-2.38579E+04-5.63187E-10-9.28100E-11
 -1       114 4.97684E+04-3.15339E+05 4.37579E+04-2.33337E+04 5.91664E-11 3.46340E-11
 -1       115 5.04376E+04-3.18188E+05 4.35832E+04-2.22627E+04-5.24550E-10-2.52651E-10
 -1       116 5.05073E+04-3.21282E+05 4.32354E+04-2.05665E+04 1.19703E-10-6.01569E-11
 -1       117 4.98938E+04-3.24627E+05 4.26711E+04-1.81548E+04-2.81236E-10-1.12391E-11
 -1       118 4.85204E+04-3.28219E+05 4.18532E+04-1.49274E+04-5.11823E-10-1.06582E-10
 -1       119 4.63272E+04-3.32034E+05 4.07553E+04-1.07764E+04 2.59001E-10 8.94184E-11
 -1       120 4.32839E+04-3.36027E+05 3.93666E+04-5.59267E+03 4.54860E-10 4.54766E-11
 -1       121 3.94069E+04-3.40113E+05 3.77001E+04 7.26272E+02 3.89990E-10 1.17528E-10
 -1       122 3.47802E+04-3.44150E+05 3.58025E+04 8.26051E+03-3.56926E-10-2.35698E-10
 -1       123 2.95793E+04-3.47910E+05 3.37668E+04 1.70437E+04 4.74278E-11-1.81491E-10
 -1       124 2.40942E+04-3.51036E+05 3.17482E+04 2.70236E+04 1.20571E-10 4.85943E-11
 -1       125 1.87384E+04-3.52969E+05 2.99792E+04 3.79993E+04 2.14694E-10-1.45149E-10
 -1       126 1.40173E+04-3.52833E+05 2.87809E+04 4.95205E+04 1.29452E-10-1.30543E-11
 -1       127 1.03932E+04-3.49235E+05 2.85572E+04 6.07250E+04 1.33776E-10-1.34708E-10
 -1       128 7.92199E+03-3.39900E+05 2.97489E+04 7.00554E+04-6.48728E-10-1.87797E-10
 -1       129 5.47375E+03-3.20965E+05 3.27186E+04 7.46537E+04-2.60092E-10-1.24109E-10
 -1       130 1.21948E+03-2.86571E+05 3.80378E+04 6.56611E+04-1.50789E-11-4.04532E-11
 -1       131 9.71315E+03-2.05640E+05 5.19692E+04 4.87186E+04 3.83607E-10 6.86374E-11
 -1       201 3.56018E+03-2.88271E+05 4.55004E+04-1.69732E+03 8.60733E-10 1.97430E-11
 -1       202 6.98590E+03-2.85482E+05 3.97047E+04-5.01754E+03-7.82529E-10-5.85057E-11
 -1       203 1.28824E+04-2.84678E+05 3.64736E+04-9.75353E+03 1.15446E-09 1.34058E-11
 -1       204 1.68136E+04-2.84877E+05 3.43155E+04-1.38594E+04-1.72061E-10-6.20176E-12
 -1       205 1.97457E+04-2.85537E+05 3.28542E+04-1.73457E+04-5.17996E-10-2.27939E-11
 -1       206 2.20775E+04-2.86408E+05 3.18627E+04-2.03424E+04-7.94439E-10-1.37030E-10
 -1       207 2.40059E+04-2.87379E+05 3.11954E+04-2.29074E+04 6.67190E-10 4.17021E-11
 -1       208 2.56443E+04-2.88411E+05 3.07560E+04-2.50671E+04 1.77181E-10 8.70482E-11
 -1       209 2.70587E+04-2.89503E+05 3.04772E+04-2.68270E+04 3.17988E-10 1.31986E-11
 -1       210 2.82848E+04-2.90675E+05 3.03099E+04-2.81772E+04-6.97669E-11 3.07331E-11
 -1       211 2.93374E+04-2.91958E+05 3.02160E+04-2.90943E+04 1.91941E-10 1.06529E-10
 -1       212 3.02155E+04-2.93389E+05 3.01645E+04-2.95416E+04-3.64925E-10-1.82635E-10
 -1       213 3.09077E+04-2.95012E+05 3.01286E+04-2.94697E+04 9.10777E-11 4.98616E-11
 -1       214 3.13945E+04-2.96873E+05 3.00846E+04-2.88164E+04-1.52932E-11 6.15521E-14
 -1       215 3.16513E+04-2.99021E+05 3.00104E+04-2.75072E+04 1.07341E-10 4.93322E-11
 -1       216 3.16510E+04-3.01508E+05 2.98852E+04-2.54556E+04-1.99829E-10-6.49993E-12
 -1       217 3.13665E+04-3.04386E+05 2.96899E+04-2.25650E+04 9.61616E-11-1.18549E-11
 -1       218 3.07732E+04-3.07704E+05 2.94065E+04-1.87310E+04-7.51570E-11-7.18046E-11
 -1       219 2.98529E+04-3.11509E+05 2.90196E+04-1.38455E+04-1.91728E-10 3.50275E-11
 -1       220 2.85964E+04-3.15828E+05 2.85170E+04-7.80355E+03 2.62935E-10 8.42168E-11
 -1       221 2.70081E+04-3.20666E+05 2.78920E+04-5.13684E+02 6.77542E-10 1.39437E-10
 -1       222 2.51079E+04-3.25974E+05 2.71457E+04 8.08681E+03-7.69165E-10-1.82827E-11
 -1       223 2.29309E+04-3.31616E+05 2.62913E+04 1.80092E+04 3.32614E-10 7.21843E-11
 -1       224 2.05195E+04-3.37300E+05 2.53591E+04 2.91809E+04 9.71990E-10 1.72167E-10
 -1       225 1.78976E+04-3.42472E+05 2.44047E+04 4.14017E+04 3.15856E-10-7.11756E-11
 -1       226 1.50085E+04-3.46113E+05 2.35196E+04 5.42870E+04-7.89853E-11 1.96583E-11
 -1       227 1.15706E+04-3.46389E+05 2.28469E+04 6.72038E+04 2.95835E-10 5.87678E-11
 -1       228 6.73627E+03-3.39968E+05 2.26033E+04 7.92256E+04 1.49233E-10-8.40908E-11
 -1       229-1.78012E+03-3.20688E+05 2.30984E+04 8.91131E+04 4.37239E-10 4.36388E-11
 -1       230-2.30869E+04-2.74537E+05 2.46345E+04 9.62942E+04-8.96550E-10 1.55586E-10
 -1       231-3.30408E+04-1.88643E+05 3.02826E+04 9.14146E+04-2.42240E-10-2.62742E-10
 -1       301 2.60527E+03-2.80998E+05 3.32440E+04-3.31379E+03 2.17280E-10 6.87519E-11
 -1       302 4.42212E+03-2.78752E+05 2.90777E+04-5.92404E+03 3.91629E-10 5.68259E-11
 -1       303 7.98022E+03-2.78508E+05 2.64938E+04-1.08849E+04-6.17190E-10-3.03653E-11
 -1       304 1.08968E+04-2.79092E+05 2.47850E+04-1.48246E+04 3.47331E-11-2.46394E-11
 -1       305 1.30827E+04-2.80095E+05 2.36040E+04-1.81944E+04 7.05109E-10 1.29705E-10
 -1       306 1.47402E+04-2.81310E+05 2.27663E+04-2.10925E+04-2.47082E-10-8.63179E-11
 -1       307 1.60156E+04-2.82643E+05 2.21578E+04-2.35762E+04-2.28817E-10-1.72906E-11
 -1       308 1.70038E+04-2.84064E+05 2.17035E+04-2.56679E+04 2.30415E-11-3.01554E-11
 -1       309 1.77655E+04-2.85577E+05 2.13513E+04-2.73695E+04-4.28911E-10-3.89104E-11
 -1       310 1.83388E+04-2.87205E+05 2.10634E+04-2.86676E+04-1.37725E-10-7.21715E-11
 -1       311 1.87455E+04-2.88988E+05 2.08109E+04-2.95363E+04 2.96733E-10-1.15147E-11
 -1       312 1.89961E+04-2.90969E+05 2.05705E+04-2.99384E+04-6.44746E-11 2.66262E-11
 -1       313 1.90928E+04-2.93201E+05 2.03225E+04-2.98258E+04 2.60790E-10 5.82754E-12
 -1       314 1.90323E+04-2.95737E+05 2.00496E+04-2.91397E+04 1.72015E-11 1.58139E-11
 -1       315 1.88081E+04-2.98636E+05 1.97363E+04-2.78110E+04-2.26007E-10-3.40234E-11
 -1       316 1.84120E+04-3.01956E+05 1.93686E+04-2.57610E+04 2.97646E-10 6.41004E-12
 -1       317 1.78364E+04-3.05755E+05 1.89335E+04-2.29030E+04-4.85708E-10 3.70758E-12
 -1       318 1.70749E+04-3.10090E+05 1.84199E+04-1.91444E+04 2.06420E-10-8.68290E-11
 -1       319 1.61239E+04-3.15005E+05 1.78186E+04-1.43897E+04-1.02744E-10-7.18788E-12
 -1       320 1.49829E+04-3.20529E+05 1.71231E+04-8.54645E+03 1.13618E-10 3.35274E-11
 -1       321 1.36521E+04-3.26658E+05 1.63309E+04-1.53182E+03 3.59449E-11 4.89398E-11
 -1       322 1.21286E+04-3.33336E+05 1.54449E+04 6.71699E+03 4.83239E-10 5.77204E-11
 -1       323 1.03947E+04-3.40416E+05 1.44749E+04 1.62300E+04-7.70940E-10-2.61076E-10
 -1       324 8.39555E+03-3.47610E+05 1.34404E+04 2.69890E+04-5.52457E-10-7.57401E-11
 -1       325 5.99591E+03-3.54395E+05 1.23723E+04 3.89126E+04-3.07300E-10 2.16453E-10
 -1       326 2.89708E+03-3.59871E+05 1.13160E+04 5.18498E+04 3.55604E-10-1.66093E-11
 -1       327-1.52057E+03-3.62523E+05 1.03313E+04 6.56056E+04-3.39545E-10 5.81641E-11
 -1       328-8.49976E+03-3.59822E+05 9.49041E+03 8.00575E+04 9.22809E-10 5.76461E-11
 -1       329-2.05817E+04-3.47442E+05 8.86395E+03 9.55965E+04 2.87115E-10 3.35252E-11
 -1       330-4.16257E+04-3.17853E+05 8.61076E+03 1.14484E+05 2.35748E-10-8.89380E-11
 -1       331-5.41498E+04-2.89574E+05 8.29938E+03 1.25772E+05 1.10773E-09 2.65728E-10
 -1       401 1.53483E+03-2.71772E+05 2.06094E+04-3.43145E+03-6.93018E-10-7.55333E-11
 -1       402 2.47978E+03-2.71826E+05 1.79433E+04-6.31350E+03 5.95832E-11-8.59278E-11
 -1       403 4.42917E+03-2.72218E+05 1.63018E+04-1.13814E+04 3.02108E-10 3.26472E-11
 -1       404 5.92861E+03-2.73253E+05 1.51329E+04-1.53100E+04-5.88528E-10-1.08228E-12
 -1       405 7.10175E+03-2.74621E+05 1.42846E+04-1.85535E+04 1.23927E-11-8.51649E-11
 -1       406 7.95201E+03-2.76183E+05 1.36401E+04-2.13140E+04 2.55627E-10 4.23472E-12
 -1       407 8.52606E+03-2.77874E+05 1.31251E+04-2.36674E+04-1.66466E-10-7.04193E-11
 -1       408 8.87021E+03-2.79676E+05 1.26898E+04-2.56435E+04 2.50326E-11 8.21448E-12
 -1       409 9.02198E+03-2.81600E+05 1.22993E+04-2.72460E+04-2.22732E-10-5.80957E-11
 -1       410 9.00959E+03-2.83677E+05 1.19282E+04-2.84617E+04-1.43226E-10-2.15181E-11
 -1       411 8.85335E+03-2.85950E+05 1.15567E+04-2.92651E+04-2.91636E-10-3.94739E-12
 -1       412 8.56742E+03-2.88470E+05 1.11691E+04-2.96199E+04 4.04276E-10 2.68324E-11
 -1       413 8.16138E+03-2.91295E+05 1.07523E+04-2.94805E+04-3.81064E-10-1.13556E-10
 -1       414 7.64169E+03-2.94486E+05 1.02947E+04-2.87917E+04-4.50776E-11 5.65850E-11
 -1       415 7.01300E+03-2.98107E+05 9.78630E+03-2.74900E+04 2.14663E-10 6.01020E-11
 -1       416 6.27906E+03-3.02223E+05 9.21800E+03-2.55036E+04-2.74183E-10-1.55423E-10
 -1       417 5.44347E+03-3.06898E+05 8.58191E+03-2.27537E+04 1.62884E-10 1.16589E-10
 -1       418 4.50970E+03-3.12191E+05 7.87131E+03-1.91556E+04-1.46351E-10-1.68588E-10
 -1       419 3.48037E+03-3.18151E+05 7.08101E+03-1.46214E+04-3.56621E-10 1.11503E-10
 -1       420 2.35496E+03-3.24807E+05 6.20768E+03-9.06207E+03 5.06488E-10 1.04679E-10
 -1       421 1.12509E+03-3.32158E+05 5.25035E+03-2.39193E+03 1.76864E-10-8.20609E-11
 -1       422-2.34099E+02-3.40152E+05 4.21092E+03 5.46788E+03 2.80744E-11 4.57373E-12
 -1       423-1.77914E+03-3.48656E+05 3.09460E+03 1.45857E+04-5.26534E-11 1.35266E-10
 -1       424-3.62398E+03-3.57415E+05 1.91016E+03 2.50187E+04 2.57782E-10-7.40754E-11
 -1       425-5.98232E+03-3.65991E+05 6.69539E+02 3.68203E+04 8.85428E-11-9.54413E-13
 -1       426-9.23609E+03-3.73665E+05-6.13775E+02 5.00679E+04-6.90197E-10-6.17270E-11
 -1       427-1.40417E+04-3.79316E+05-1.92842E+03 6.49343E+04 7.27479E-10 9.72460E-12
 -1       428-2.14843E+04-3.81241E+05-3.27254E+03 8.18635E+04-3.27863E-10 2.51323E-11
 -1       429-3.31777E+04-3.76988E+05-4.66016E+03 1.01960E+05 1.27433E-10-2.63593E-11
 -1       430-5.12428E+04-3.63610E+05-6.15692E+03 1.27825E+05 6.00363E-10-3.32855E-11
 -1       431-6.31173E+04-3.62228E+05-8.82176E+03 1.44242E+05-6.64649E-10 5.90043E-11
 -1       501 6.07966E+02-2.62675E+05 7.94497E+03-3.35368E+03-1.70755E-09-2.53445E-10
 -1       502 7.81915E+02-2.64336E+05 6.82102E+03-6.20943E+03 8.39709E-10 1.17225E-10
 -1       503 1.31635E+03-2.65796E+05 6.09331E+03-1.12917E+04 2.31400E-10 4.09439E-11
 -1       504 1.62358E+03-2.67405E+05 5.52631E+03-1.52008E+04 3.68495E-10 6.55027E-12
 -1       505 1.77880E+03-2.69197E+05 5.05394E+03-1.83575E+04-8.63496E-10-9.11855E-11
 -1       506 1.78910E+03-2.71128E+05 4.63770E+03-2.09879E+04-2.50456E-11 8.27566E-11
 -1       507 1.64645E+03-2.73178E+05 4.24754E+03-2.32020E+04-3.31961E-11-1.37644E-11
 -1       508 1.35569E+03-2.75351E+05 3.86162E+03-2.50457E+04 6.56554E-11 1.43399E-11
 -1       509 9.28223E+02-2.77672E+05 3.46365E+03-2.65313E+04 1.19850E-10-1.30303E-11
 -1       510 3.77613E+02-2.80178E+05 3.04109E+03-2.76504E+04-9.63373E-11 3.36374E-11
 -1       511-2.82560E+02-2.82919E+05 2.58391E+03-2.83808E+04-1.83068E-10-2.44619E-11
 -1       512-1.03951E+03-2.85953E+05 2.08382E+03-2.86894E+04 5.00845E-11 7.58742E-12
 -1       513-1.88131E+03-2.89341E+05 1.53368E+03-2.85339E+04 1.75718E-10 1.04893E-10
 -1       514-2.79668E+03-2.93151E+05 9.27264E+02-2.78638E+04-2.49998E-10-7.45472E-11
 -1       515-3.77468E+03-2.97452E+05 2.59042E+02-2.66204E+04 3.67962E-11 3.87654E-11
 -1       516-4.80461E+03-3.02315E+05-4.75872E+02-2.47379E+04-2.18429E-10-1.61030E-11
 -1       517-5.87623E+03-3.07809E+05-1.28167E+03-2.21433E+04 4.31223E-10 1.27287E-11
 -1       518-6.98059E+03-3.13999E+05-2.16179E+03-1.87570E+04-3.78589E-10 9.28661E-12
 -1       519-8.11192E+03-3.20938E+05-3.11877E+03-1.44937E+04 3.22211E-10 1.88718E-11
 -1       520-9.27104E+03-3.28664E+05-4.15416E+03-9.26290E+03-1.46643E-11-3.78300E-11
 -1       521-1.04711E+04-3.37186E+05-5.26839E+03-2.96912E+03-1.92199E-10-1.50446E-11
 -1       522-1.17470E+04-3.46471E+05-6.46083E+03 4.48914E+03-3.45902E-10-3.30406E-11
 -1       523-1.31696E+04-3.56419E+05-7.73006E+03 1.32229E+04-9.78705E-11 4.26192E-11
 -1       524-1.48672E+04-3.66839E+05-9.07458E+03 2.33617E+04 3.00995E-10-9.84273E-11
 -1       525-1.70572E+04-3.77408E+05-1.04942E+04 3.50731E+04 5.23856E-10 8.37690E-11
 -1       526-2.00876E+04-3.87624E+05-1.19924E+04 4.86025E+04 4.35100E-10 2.16591E-11
 -1       527-2.44883E+04-3.96756E+05-1.35809E+04 6.43489E+04-5.15154E-10-6.33093E-11
 -1       528-3.10106E+04-4.03819E+05-1.52852E+04 8.30039E+04 7.07440E-10 1.17286E-10
 -1       529-4.06186E+04-4.07636E+05-1.71565E+04 1.05787E+05 3.06156E-10 6.25265E-11
 -1       530-5.43121E+04-4.07152E+05-1.92861E+04 1.34762E+05-4.29898E-10-4.58004E-11
 -1       531-6.40868E+04-4.21673E+05-2.29180E+04 1.53518E+05-8.72338E-11 4.44603E-11
 -1       601-2.91612E+02-2.53984E+05-4.39559E+03-3.16111E+03 2.42073E-10-2.96270E-11
 -1       602-7.80945E+02-2.56860E+05-4.02782E+03-5.89793E+03-3.69114E-11 2.42525E-11
 -1       603-1.50634E+03-2.59312E+05-3.86314E+03-1.07906E+04 4.43400E-10 1.38063E-11
 -1       604-2.24454E+03-2.61605E+05-3.83601E+03-1.45926E+04-3.21036E-10 1.36023E-10
 -1       605-2.99037E+03-2.63885E+05-3.91588E+03-1.76384E+04 7.03608E-10 3.33118E-11
 -1       606-3.76393E+03-2.66216E+05-4.08286E+03-2.01393E+04-2.24344E-10-2.35172E-11
 -1       607-4.58933E+03-2.68633E+05-4.32544E+03-2.22144E+04 2.56027E-10 5.28682E-11
 -1       608-5.48399E+03-2.71171E+05-4.63812E+03-2.39229E+04-5.65636E-10-1.41892E-10
 -1       609-6.45501E+03-2.73871E+05-5.01859E+03-2.52872E+04 1.23280E-10 2.77032E-11
 -1       610-7.50173E+03-2.76783E+05-5.46632E+03-2.63060E+04 4.00613E-10 1.66833E-11
 -1       611-8.61830E+03-2.79964E+05-5.98178E+03-2.69626E+04 1.49325E-10 5.15536E-11
 -1       612-9.79551E+03-2.83476E+05-6.56599E+03-2.72286E+04-1.42014E-10 6.97303E-11
 -1       613-1.10219E+04-2.87388E+05-7.22030E+03-2.70664E+04-1.58545E-10-3.91279E-11
 -1       614-1.22845E+04-2.91773E+05-7.94621E+03-2.64301E+04 1.47425E-10 5.90149E-11
 -1       615-1.35692E+04-2.96704E+05-8.74521E+03-2.52663E+04 6.85977E-11-3.80145E-11
 -1       616-1.48612E+04-3.02258E+05-9.61872E+03-2.35139E+04 2.04106E-10 8.72818E-11
 -1       617-1.61459E+04-3.08511E+05-1.05679E+04-2.11045E+04 3.36926E-10-2.80385E-11
 -1       618-1.74103E+04-3.15533E+05-1.15937E+04-1.79618E+04 1.14974E-10 5.36593E-11
 -1       619-1.86452E+04-3.23389E+05-1.26967E+04-1.40012E+04-1.47968E-10-6.37198E-11
 -1       620-1.98486E+04-3.32128E+05-1.38770E+04-9.12833E+03-2.42939E-10-1.05476E-10
 -1       621-2.10313E+04-3.41779E+05-1.51347E+04-3.23682E+03 2.89056E-11 6.32219E-11
 -1       622-2.22243E+04-3.52337E+05-1.64697E+04 3.79600E+03-1.39034E-10-4.45219E-12
 -1       623-2.34903E+04-3.63752E+05-1.78827E+04 1.21168E+04 2.13109E-10 3.92161E-11
 -1       624-2.49381E+04-3.75912E+05-1.93757E+04 2.19096E+04 3.34785E-10-7.61946E-11
 -1       625-2.67408E+04-3.88621E+05-2.09536E+04 3.34184E+04-2.18847E-10-1.16930E-10
 -1       626-2.91561E+04-4.01587E+05-2.26267E+04 4.69845E+04 2.42301E-10 2.86081E-11
 -1       627-3.25414E+04-4.14413E+05-2.44133E+04 6.31057E+04-2.91267E-10 5.49219E-12
 -1       628-3.73512E+04-4.26626E+05-2.63450E+04 8.25239E+04-4.11268E-10-3.38918E-11
 -1       629-4.40882E+04-4.37776E+05-2.84725E+04 1.06339E+05-4.75066E-10-2.47593E-11
 -1       630-5.31778E+04-4.47672E+05-3.08749E+04 1.36128E+05-3.53871E-10 9.95315E-11
 -1       631-6.05917E+04-4.72675E+05-3.48440E+04 1.55424E+05-1.19033E-09-1.42633E-10
 -1       701-1.12571E+03-2.45849E+05-1.61244E+04-2.90726E+03-4.83972E-10 5.32427E-11
 -1       702-2.21163E+03-2.49694E+05-1.43609E+04-5.45198E+03-1.85473E-10-7.37991E-11
 -1       703-4.07414E+03-2.53011E+05-1.33524E+04-1.00218E+04-8.61061E-11-6.26347E-11
 -1       704-5.73400E+03-2.55971E+05-1.27557E+04-1.36092E+04-5.32376E-10-1.19673E-10
 -1       705-7.27043E+03-2.58765E+05-1.24509E+04-1.64865E+04 6.92490E-11-1.31298E-11
 -1       706-8.73904E+03-2.61516E+05-1.23637E+04-1.88330E+04 3.25242E-10 6.42791E-11
 -1       707-1.01818E+04-2.64306E+05-1.24471E+04-2.07602E+04 9.62722E-11 8.34014E-12
 -1       708-1.16282E+04-2.67201E+05-1.26709E+04-2.23306E+04 1.26701E-10-4.95498E-11
 -1       709-1.30964E+04-2.70263E+05-1.30155E+04-2.35727E+04-1.79848E-11-2.14321E-11
 -1       710-1.45946E+04-2.73555E+05-1.34681E+04-2.44919E+04 1.86936E-10 2.58774E-11
 -1       711-1.61230E+04-2.77142E+05-1.40200E+04-2.50772E+04-1.45008E-10-4.93559E-12
 -1       712-1.76762E+04-2.81094E+05-1.46653E+04-2.53057E+04-1.16771E-10-7.43561E-11
 -1       713-1.92442E+04-2.85486E+05-1.54000E+04-2.51450E+04 1.07954E-11 1.48413E-12
 -1       714-2.08136E+04-2.90395E+05-1.62212E+04-2.45542E+04-3.53648E-10-1.03129E-10
 -1       715-2.23687E+04-2.95901E+05-1.71268E+04-2.34848E+04-1.15295E-10 1.03930E-10
 -1       716-2.38919E+04-3.02087E+05-1.81152E+04-2.18807E+04-8.52406E-11-4.95126E-11
 -1       717-2.53652E+04-3.09034E+05-1.91850E+04-1.96775E+04-3.20779E-10-8.33414E-11
 -1       718-2.67713E+04-3.16825E+05-2.03351E+04-1.68018E+04-1.42569E-10-2.70323E-11
 -1       719-2.80958E+04-3.25534E+05-2.15643E+04-1.31695E+04 2.06217E-10 3.15567E-11
 -1       720-2.93300E+04-3.35229E+05-2.28714E+04-8.68334E+03 2.34118E-10-1.58356E-11
 -1       721-3.04750E+04-3.45962E+05-2.42557E+04-3.22913E+03 4.05323E-10 3.09683E-11
 -1       722-3.15475E+04-3.57767E+05-2.57169E+04 3.33038E+03-2.25334E-11-1.96980E-11
 -1       723-3.25862E+04-3.70649E+05-2.72557E+04 1.11647E+04 4.52475E-10-3.80988E-11
 -1       724-3.36603E+04-3.84576E+05-2.88748E+04 2.04892E+04-1.29826E-10-4.16192E-12
 -1       725-3.48777E+04-3.99478E+05-3.05797E+04 3.15861E+04-3.47994E-10-5.85869E-12
 -1       726-3.63907E+04-4.15241E+05-3.23805E+04 4.48335E+04 2.03857E-10 2.10743E-11
 -1       727-3.83950E+04-4.31726E+05-3.42938E+04 6.07450E+04 1.68338E-10 7.31728E-11
 -1       728-4.11118E+04-4.48800E+05-3.63453E+04 8.00188E+04 4.29747E-10-9.69079E-11
 -1       729-4.47447E+04-4.66424E+05-3.85733E+04 1.03587E+05-2.45815E-10 1.13078E-10
 -1       730-4.93969E+04-4.84793E+05-4.10319E+04 1.32648E+05 2.94840E-10-4.77633E-11
 -1       731-5.44924E+04-5.17334E+05-4.50280E+04 1.51443E+05-2.66759E-10 1.23524E-10
 -1       801-1.88430E+03-2.38397E+05-2.70022E+04-2.60925E+03 4.63938E-10 4.09589E-11
 -1       802-3.50120E+03-2.43033E+05-2.39675E+04-4.91373E+03-1.75483E-09-3.45293E-10
 -1       803-6.38103E+03-2.47091E+05-2.21822E+04-9.06330E+03 1.91547E-10 1.13688E-10
 -1       804-8.85361E+03-2.50655E+05-2.10557E+04-1.23495E+04-2.54846E-10-2.93443E-11
 -1       805-1.10790E+04-2.53944E+05-2.03872E+04-1.49952E+04 3.14392E-10 1.23295E-10
 -1       806-1.31528E+04-2.57109E+05-2.00538E+04-1.71494E+04-2.01253E-10-1.00848E-10
 -1       807-1.51366E+04-2.60265E+05-1.99769E+04-1.89088E+04-1.22462E-10-4.35413E-12
 -1       808-1.70710E+04-2.63505E+05-2.01045E+04-2.03320E+04 6.85588E-11 1.91590E-11
 -1       809-1.89814E+04-2.66908E+05-2.04019E+04-2.14489E+04 1.21014E-10 1.20570E-10
 -1       810-2.08817E+04-2.70551E+05-2.08449E+04-2.22688E+04 6.73602E-11 8.80414E-12
 -1       811-2.27765E+04-2.74508E+05-2.14165E+04-2.27855E+04-1.19345E-10-1.14839E-11
 -1       812-2.46630E+04-2.78859E+05-2.21047E+04-2.29814E+04 3.70406E-10 1.26300E-10
 -1       813-2.65324E+04-2.83682E+05-2.29004E+04-2.28291E+04-1.33786E-10-5.77959E-11
 -1       814-2.83716E+04-2.89062E+05-2.37968E+04-2.22930E+04-8.65733E-11-1.37804E-11
 -1       815-3.01634E+04-2.95084E+05-2.47887E+04-2.13299E+04 3.60559E-10 7.80331E-11
 -1       816-3.18880E+04-3.01839E+05-2.58716E+04-1.98884E+04 2.69982E-10 6.81066E-11
 -1       817-3.35237E+04-3.09416E+05-2.70421E+04-1.79088E+04-3.17487E-10-7.87768E-11
 -1       818-3.50482E+04-3.17907E+05-2.82969E+04-1.53211E+04 9.17167E-11 3.03851E-11
 -1       819-3.64398E+04-3.27403E+05-2.96332E+04-1.20433E+04 3.09059E-10 1.03195E-10
 -1       820-3.76801E+04-3.37989E+05-3.10486E+04-7.97846E+03-4.69447E-10-1.57891E-10
 -1       821-3.87556E+04-3.49747E+05-3.25410E+04-3.00968E+03-3.41766E-11 3.58856E-11
 -1       822-3.96616E+04-3.62748E+05-3.41090E+04 3.00591E+03-2.20141E-10 2.50929E-12
 -1       823-4.04048E+04-3.77054E+05-3.57523E+04 1.02463E+04 4.26536E-12-9.67517E-11
 -1       824-4.10072E+04-3.92712E+05-3.74718E+04 1.89367E+04 2.08273E-11 2.53489E-11
 -1       825-4.15072E+04-4.09758E+05-3.92710E+04 2.93663E+04 5.17936E-10 5.43972E-11
 -1       826-4.19581E+04-4.28225E+05-4.11560E+04 4.19090E+04-3.36789E-10-8.01855E-11
 -1       827-4.24203E+04-4.48158E+05-4.31374E+04 5.70480E+04-8.26816E-11 1.20098E-10
 -1       828-4.29431E+04-4.69652E+05-4.52311E+04 7.54015E+04 7.13510E-11-6.64910E-11
 -1       829-4.35326E+04-4.92900E+05-4.74593E+04 9.77412E+04-2.64363E-10-3.46401E-11
 -1       830-4.41036E+04-5.18280E+05-4.98520E+04 1.24992E+05-6.36269E-10-1.27682E-11
 -1       831-4.70619E+04-5.56570E+05-5.37232E+04 1.42582E+05 2.24508E-10-9.80414E-11
 -1       901-2.55669E+03-2.31739E+05-3.68256E+04-2.27960E+03-4.25641E-10-2.66361E-11
 -1       902-4.63890E+03-2.37020E+05-3.26634E+04-4.30781E+03 1.34096E-09 2.71012E-10
 -1       903-8.41330E+03-2.41701E+05-3.01825E+04-7.96621E+03-7.81317E-10-1.60713E-10
 -1       904-1.15938E+04-2.45795E+05-2.85774E+04-1.08840E+04 3.80184E-10 6.86836E-11
 -1       905-1.44133E+04-2.49531E+05-2.75768E+04-1.32430E+04-2.91309E-10-8.62568E-11
 -1       906-1.70061E+04-2.53082E+05-2.70146E+04-1.51652E+04-2.59566E-10-5.45324E-11
 -1       907-1.94541E+04-2.56583E+05-2.67846E+04-1.67317E+04-7.96958E-11-7.21970E-11
 -1       908-2.18088E+04-2.60144E+05-2.68161E+04-1.79932E+04 4.49269E-10 1.08018E-10
 -1       909-2.41020E+04-2.63861E+05-2.70609E+04-1.89778E+04 3.82873E-11-1.43709E-12
 -1       910-2.63517E+04-2.67821E+05-2.74852E+04-1.96963E+04-3.00487E-10-1.29254E-10
 -1       911-2.85653E+04-2.72111E+05-2.80648E+04-2.01456E+04 1.27119E-10 2.98059E-11
 -1       912-3.07417E+04-2.76814E+05-2.87819E+04-2.03124E+04-1.66033E-10-4.25252E-11
 -1       913-3.28730E+04-2.82019E+05-2.96231E+04-2.01742E+04-4.04482E-10-1.32717E-10
 -1       914-3.49457E+04-2.87815E+05-3.05782E+04-1.97007E+04 3.66627E-10 8.02086E-11
 -1       915-3.69413E+04-2.94294E+05-3.16389E+04-1.88538E+04-8.27816E-11-1.91043E-11
 -1       916-3.88375E+04-3.01552E+05-3.27987E+04-1.75878E+04-4.98486E-11-1.06797E-11
 -1       917-4.06086E+04-3.09689E+05-3.40517E+04-1.58481E+04 1.19253E-10-1.02922E-11
 -1       918-4.22264E+04-3.18809E+05-3.53932E+04-1.35700E+04 1.50941E-10 3.54889E-11
 -1       919-4.36609E+04-3.29016E+05-3.68187E+04-1.06762E+04-2.77993E-10-1.47821E-10
 -1       920-4.48816E+04-3.40417E+05-3.83242E+04-7.07360E+03-1.43906E-10-1.46657E-11
 -1       921-4.58580E+04-3.53122E+05-3.99060E+04-2.64908E+03 1.35125E-10-8.08532E-13
 -1       922-4.65613E+04-3.67240E+05-4.15612E+04 2.73679E+03 8.21358E-11-1.01330E-11
 -1       923-4.69643E+04-3.82884E+05-4.32873E+04 9.25737E+03-2.40449E-10 2.15992E-11
 -1       924-4.70415E+04-4.00170E+05-4.50826E+04 1.71301E+04-8.83090E-11-5.81073E-11
 -1       925-4.67672E+04-4.19223E+05-4.69467E+04 2.66286E+04-7.80535E-10-1.55627E-10
 -1       926-4.61098E+04-4.40189E+05-4.88807E+04 3.80970E+04 6.37728E-10 1.62490E-10
 -1       927-4.50233E+04-4.63249E+05-5.08874E+04 5.19647E+04-5.92323E-11-7.86320E-11
 -1       928-4.34313E+04-4.88643E+05-5.29720E+04 6.87588E+04 3.67553E-10 5.05780E-11
 -1       929-4.12058E+04-5.16708E+05-5.51417E+04 8.91109E+04 1.63026E-10-2.78029E-11
 -1       930-3.81409E+04-5.47916E+05-5.74057E+04 1.13748E+05 4.06801E-10 8.17267E-11
 -1       931-3.91981E+04-5.90752E+05-6.10852E+04 1.29626E+05 4.59084E-11-5.03447E-11
 -1      1001-3.13560E+03-2.25964E+05-4.54224E+04-1.92694E+03-3.95237E-10-1.08938E-10
 -1      1002-5.61549E+03-2.31765E+05-4.02897E+04-3.65191E+03 1.39014E-10 2.69154E-12
 -1      1003-1.01567E+04-2.36962E+05-3.72054E+04-6.76656E+03-1.11970E-10-6.38132E-11
 -1      1004-1.39406E+04-2.41503E+05-3.51821E+04-9.26453E+03-8.37576E-11 2.72781E-11
 -1      1005-1.72626E+04-2.45628E+05-3.38887E+04-1.12920E+04-2.08424E-11-1.72429E-11
 -1      1006-2.02917E+04-2.49520E+05-3.31224E+04-1.29468E+04-1.41992E-10-1.97633E-11
 -1      1007-2.31289E+04-2.53330E+05-3.27532E+04-1.42948E+04-2.97484E-10-5.63039E-11
 -1      1008-2.58363E+04-2.57179E+05-3.26945E+04-1.53779E+04 4.89385E-11 3.19104E-12
 -1      1009-2.84517E+04-2.61174E+05-3.28868E+04-1.62206E+04-6.21354E-10-1.62585E-10
 -1      1010-3.09965E+04-2.65415E+05-3.32880E+04-1.68329E+04 1.64441E-10 7.52465E-11
 -1      1011-3.34799E+04-2.69995E+05-3.38677E+04-1.72140E+04-1.65161E-10-3.52105E-11
 -1      1012-3.59019E+04-2.75005E+05-3.46033E+04-1.73537E+04 3.90418E-10 1.18203E-10
 -1      1013-3.82549E+04-2.80539E+05-3.54778E+04-1.72338E+04-3.55634E-12-3.45727E-11
 -1      1014-4.05246E+04-2.86692E+05-3.64778E+04-1.68293E+04-8.47040E-11-5.86819E-12
 -1      1015-4.26912E+04-2.93564E+05-3.75926E+04-1.61076E+04-6.58665E-10-1.53640E-10
 -1      1016-4.47295E+04-3.01258E+05-3.88136E+04-1.50292E+04 4.98733E-10 8.88109E-11
 -1      1017-4.66095E+04-3.09882E+05-4.01332E+04-1.35460E+04 1.45183E-11 7.55798E-12
 -1      1018-4.82967E+04-3.19551E+05-4.15449E+04-1.16002E+04-3.62178E-10-7.21285E-11
 -1      1019-4.97524E+04-3.30385E+05-4.30426E+04-9.12210E+03-1.69270E-10-2.09207E-11
 -1      1020-5.09333E+04-3.42510E+05-4.46209E+04-6.02690E+03 7.41527E-11-1.27748E-11
 -1      1021-5.17918E+04-3.56063E+05-4.62745E+04-2.21091E+03-1.58899E-10-1.52876E-11
 -1      1022-5.22751E+04-3.71187E+05-4.79982E+04 2.45362E+03 4.70018E-10 3.60326E-11
 -1      1023-5.23239E+04-3.88039E+05-4.97872E+04 8.12482E+03-3.45963E-10-1.06154E-10
 -1      1024-5.18703E+04-4.06792E+05-5.16368E+04 1.49989E+04 2.57169E-10 6.00075E-11
 -1      1025-5.08334E+04-4.27645E+05-5.35423E+04 2.33189E+04-1.22491E-10-6.37901E-11
 -1      1026-4.91133E+04-4.50826E+05-5.54993E+04 3.33840E+04 1.19255E-10 5.54012E-11
 -1      1027-4.65820E+04-4.76613E+05-5.75031E+04 4.55584E+04-6.68361E-10-1.42420E-10
 -1      1028-4.30714E+04-5.05348E+05-5.95490E+04 6.02779E+04-5.06081E-10-2.29932E-11
 -1      1029-3.83588E+04-5.37458E+05-6.16313E+04 7.80515E+04 8.88865E-10 1.44869E-10
 -1      1030-3.21530E+04-5.73480E+05-6.37430E+04 9.94557E+04 9.61865E-11 2.74285E-11
 -1      1031-3.15718E+04-6.19962E+05-6.72131E+04 1.13233E+05 3.96595E-10 8.28431E-11
 -1      1101-3.61555E+03-2.21146E+05-5.26491E+04-1.55777E+03 4.31517E-10-2.30035E-11
 -1      1102-6.42355E+03-2.27357E+05-4.67122E+04-2.95926E+03 5.90564E-10 1.49606E-10
 -1      1103-1.15992E+04-2.32968E+05-4.31249E+04-5.49132E+03-4.58381E-10-5.98016E-11
 -1      1104-1.58803E+04-2.37873E+05-4.07509E+04-7.53084E+03 3.47051E-10 7.65846E-11
 -1      1105-1.96142E+04-2.42319E+05-3.92102E+04-9.19152E+03 6.67802E-10 1.21125E-10
 -1      1106-2.29990E+04-2.46500E+05-3.82699E+04-1.05495E+04 5.30527E-10 9.42151E-11
 -1      1107-2.61525E+04-2.50571E+05-3.77805E+04-1.16562E+04-1.64224E-10-3.45096E-11
 -1      1108-2.91464E+04-2.54666E+05-3.76423E+04-1.25446E+04-2.47525E-10-5.81422E-11
 -1      1109-3.20237E+04-2.58900E+05-3.77863E+04-1.32345E+04-1.38275E-11 1.52352E-11
 -1      1110-3.48088E+04-2.63378E+05-3.81638E+04-1.37347E+04 4.67805E-10 7.67327E-11
 -1      1111-3.75124E+04-2.68201E+05-3.87393E+04-1.40451E+04-1.39056E-11 1.38472E-11
 -1      1112-4.01351E+04-2.73467E+05-3.94861E+04-1.41581E+04-2.19515E-10-1.11896E-10
 -1      1113-4.26692E+04-2.79275E+05-4.03843E+04-1.40597E+04 3.88744E-10 1.10252E-10
 -1      1114-4.50996E+04-2.85727E+05-4.14178E+04-1.37295E+04 4.22756E-10 8.46063E-11
 -1      1115-4.74045E+04-2.92926E+05-4.25741E+04-1.31412E+04-2.63933E-10-4.30456E-11
 -1      1116-4.95561E+04-3.00983E+05-4.38426E+04-1.22618E+04-2.82630E-11 6.43940E-12
 -1      1117-5.15201E+04-3.10016E+05-4.52142E+04-1.10513E+04 7.69714E-11 2.49514E-12
 -1      1118-5.32560E+04-3.20148E+05-4.66810E+04-9.46065E+03 8.69596E-11-2.54741E-11
 -1      1119-5.47163E+04-3.31514E+05-4.82354E+04-7.43039E+03-8.10021E-11 1.21975E-11
 -1      1120-5.58462E+04-3.44257E+05-4.98706E+04-4.88788E+03 3.29506E-10 8.11653E-11
 -1      1121-5.65820E+04-3.58537E+05-5.15794E+04-1.74411E+03 9.93692E-11 3.11423E-11
 -1      1122-5.68495E+04-3.74525E+05-5.33550E+04 2.11039E+03-1.15547E-10-5.16395E-11
 -1      1123-5.65617E+04-3.92417E+05-5.51900E+04 6.81038E+03 4.73582E-10 1.11592E-10
 -1      1124-5.56149E+04-4.12431E+05-5.70765E+04 1.25215E+04-6.81241E-10-4.15732E-11
 -1      1125-5.38840E+04-4.34819E+05-5.90061E+04 1.94464E+04 3.80052E-10 8.24062E-11
 -1      1126-5.12160E+04-4.59874E+05-6.09690E+04 2.78306E+04-3.88128E-10-4.88424E-11
 -1      1127-4.74214E+04-4.87942E+05-6.29542E+04 3.79682E+04 2.44591E-10 4.05709E-11
 -1      1128-4.22650E+04-5.19435E+05-6.49485E+04 5.02052E+04 4.51382E-11 5.58112E-12
 -1      1129-3.54554E+04-5.54845E+05-6.69362E+04 6.49411E+04-6.69642E-11-1.62623E-11
 -1      1130-2.66362E+04-5.94753E+05-6.88975E+04 8.26260E+04-4.27803E-10-7.83574E-11
 -1      1131-2.46951E+04-6.44136E+05-7.21698E+04 9.39994E+04 3.22544E-10 3.72972E-11
 -1      1201-3.99252E+03-2.17342E+05-5.83894E+04-1.17706E+03-5.50430E-10-6.20108E-11
 -1      1202-7.05742E+03-2.23862E+05-5.18215E+04-2.24016E+03-4.51190E-10-9.06528E-11
 -1      1203-1.27307E+04-2.29790E+05-4.78373E+04-4.16149E+03 8.14240E-10 9.63960E-11
 -1      1204-1.74012E+04-2.34976E+05-4.51854E+04-5.71407E+03-6.80078E-11-7.15984E-11
 -1      1205-2.14563E+04-2.39675E+05-4.34478E+04-6.98143E+03-2.69439E-10-2.66915E-11
 -1      1206-2.51174E+04-2.44084E+05-4.23680E+04-8.01952E+03 1.10439E-10 1.00375E-11
 -1      1207-2.85159E+04-2.48365E+05-4.17814E+04-8.86602E+03 1.69106E-10 2.06648E-11
 -1      1208-3.17312E+04-2.52656E+05-4.15778E+04-9.54553E+03 9.58504E-11-6.85684E-11
 -1      1209-3.48111E+04-2.57080E+05-4.16812E+04-1.00728E+04 8.90537E-11 3.98416E-11
 -1      1210-3.77821E+04-2.61748E+05-4.20373E+04-1.04545E+04 1.77592E-10 1.96051E-11
 -1      1211-4.06564E+04-2.66765E+05-4.26068E+04-1.06911E+04 8.87885E-11 3.31099E-11
 -1      1212-4.34348E+04-2.72235E+05-4.33600E+04-1.07770E+04-5.29872E-10-7.25515E-11
 -1      1213-4.61093E+04-2.78260E+05-4.42744E+04-1.07019E+04 1.74593E-10 1.81699E-11
 -1      1214-4.86638E+04-2.84946E+05-4.53321E+04-1.04504E+04-2.05305E-10-2.97786E-11
 -1      1215-5.10751E+04-2.92404E+05-4.65188E+04-1.00024E+04-6.12626E-12-1.79075E-11
 -1      1216-5.33124E+04-3.00750E+05-4.78226E+04-9.33258E+03-3.64938E-10-1.76308E-11
 -1      1217-5.53379E+04-3.10107E+05-4.92331E+04-8.40965E+03 1.29884E-10 1.36949E-11
 -1      1218-5.71056E+04-3.20609E+05-5.07411E+04-7.19528E+03 3.69042E-10 1.36148E-10
 -1      1219-5.85607E+04-3.32401E+05-5.23380E+04-5.64267E+03-8.86233E-11-1.81304E-11
 -1      1220-5.96382E+04-3.45641E+05-5.40154E+04-3.69452E+03-4.01019E-11-7.57222E-11
 -1      1221-6.02609E+04-3.60507E+05-5.57650E+04-1.28058E+03 1.03718E-10 3.40177E-12
 -1      1222-6.03374E+04-3.77195E+05-5.75780E+04 1.68530E+03-4.23608E-10-1.34989E-10
 -1      1223-5.97581E+04-3.95928E+05-5.94449E+04 5.30866E+03 1.84668E-10 4.12569E-11
 -1      1224-5.83917E+04-4.16958E+05-6.13552E+04 9.71826E+03-2.16206E-10 7.09320E-11
 -1      1225-5.60794E+04-4.40577E+05-6.32971E+04 1.50701E+04 2.02495E-11-6.33009E-11
 -1      1226-5.26287E+04-4.67125E+05-6.52565E+04 2.15513E+04-3.41276E-10-2.15307E-11
 -1      1227-4.78058E+04-4.96994E+05-6.72173E+04 2.93834E+04 6.99780E-10 8.37394E-11
 -1      1228-4.13272E+04-5.30647E+05-6.91599E+04 3.88250E+04-3.61477E-10-5.59777E-11
 -1      1229-3.28515E+04-5.68620E+05-7.10606E+04 5.01727E+04-4.02960E-10-4.28510E-11
 -1      1230-2.19715E+04-6.11536E+05-7.28906E+04 6.37612E+04-2.15625E-10-2.31154E-11
 -1      1231-1.89598E+04-6.63146E+05-7.59949E+04 7.24951E+04 2.06887E-10 4.52722E-11
 -1      1301-4.26365E+03-2.14596E+05-6.25535E+04-7.88612E+02 3.61149E-10 1.98997E-10
 -1      1302-7.51296E+03-2.21331E+05-5.55319E+04-1.50285E+03 1.08365E-10-1.59886E-11
 -1      1303-1.35440E+04-2.27482E+05-5.12615E+04-2.79393E+03 8.80530E-13-6.66132E-11
 -1      1304-1.84940E+04-2.32869E+05-4.84085E+04-3.83953E+03-1.78411E-10 2.82639E-11
 -1      1305-2.27791E+04-2.37749E+05-4.65278E+04-4.69459E+03-3.47658E-10-6.78664E-11
 -1      1306-2.66375E+04-2.42322E+05-4.53463E+04-5.39583E+03 3.80833E-10 1.35658E-11
 -1      1307-3.02105E+04-2.46755E+05-4.46882E+04-5.96804E+03 3.90930E-10 7.96288E-11
 -1      1308-3.35835E+04-2.51190E+05-4.44362E+04-6.42741E+03 7.81356E-11 2.73383E-11
 -1      1309-3.68073E+04-2.55753E+05-4.45088E+04-6.78374E+03 1.67941E-10 1.48601E-11
 -1      1310-3.99106E+04-2.60559E+05-4.48482E+04-7.04160E+03-2.74630E-10-3.76016E-11
 -1      1311-4.29063E+04-2.65718E+05-4.54120E+04-7.20128E+03-4.03660E-10-2.07543E-11
 -1      1312-4.57956E+04-2.71334E+05-4.61685E+04-7.25926E+03 2.26332E-10-1.60119E-11
 -1      1313-4.85700E+04-2.77516E+05-4.70933E+04-7.20861E+03-5.99358E-10-7.24663E-11
 -1      1314-5.12127E+04-2.84373E+05-4.81672E+04-7.03911E+03-7.94434E-11-1.41469E-11
 -1      1315-5.36989E+04-2.92018E+05-4.93747E+04-6.73713E+03 2.50978E-10 2.77342E-11
 -1      1316-5.59961E+04-3.00573E+05-5.07028E+04-6.28543E+03-6.18042E-11-1.51602E-11
 -1      1317-5.80632E+04-3.10165E+05-5.21402E+04-5.66258E+03 8.30710E-11-2.56971E-11
 -1      1318-5.98501E+04-3.20937E+05-5.36768E+04-4.84226E+03-2.52681E-10 4.38975E-12
 -1      1319-6.12962E+04-3.33040E+05-5.53030E+04-3.79218E+03 2.62129E-10 1.36307E-11
 -1      1320-6.23289E+04-3.46645E+05-5.70096E+04-2.47285E+03-1.38196E-10 2.29304E-11
 -1      1321-6.28610E+04-3.61942E+05-5.87869E+04-8.35761E+02-2.09093E-10-4.15427E-11
 -1      1322-6.27882E+04-3.79144E+05-6.06249E+04 1.17833E+03-7.23748E-11 5.18562E-11
 -1      1323-6.19848E+04-3.98493E+05-6.25124E+04 3.64182E+03 1.56059E-10-5.29471E-11
 -1      1324-6.02997E+04-4.20267E+05-6.44370E+04 6.64248E+03 1.36774E-10-1.93221E-11
 -1      1325-5.75507E+04-4.44785E+05-6.63841E+04 1.02860E+04-2.25607E-10 3.28635E-11
 -1      1326-5.35182E+04-4.72416E+05-6.83368E+04 1.46984E+04 2.15171E-10-1.11292E-11
 -1      1327-4.79381E+04-5.03586E+05-7.02750E+04 2.00278E+04 1.03743E-10 2.67509E-12
 -1      1328-4.04942E+04-5.38790E+05-7.21745E+04 2.64460E+04 3.64643E-11 7.73782E-12
 -1      1329-3.08104E+04-5.78596E+05-7.40064E+04 3.41501E+04-1.19184E-10-1.88135E-11
 -1      1330-1.84427E+04-6.23656E+05-7.57356E+04 4.33633E+04-9.64229E-11-2.55958E-11
 -1      1331-1.46591E+04-6.76848E+05-7.87130E+04 4.92828E+04 3.35466E-10 1.94859E-10
 -1      1401-4.42706E+03-2.12936E+05-6.50774E+04-3.95427E+02-2.34674E-10-5.27887E-11
 -1      1402-7.78737E+03-2.19799E+05-5.77826E+04-7.54161E+02-3.75660E-10-1.08834E-12
 -1      1403-1.40340E+04-2.26083E+05-5.33394E+04-1.40268E+03-1.98043E-10 7.83522E-12
 -1      1404-1.91524E+04-2.31590E+05-5.03646E+04-1.92857E+03-2.11455E-10-7.83814E-14
 -1      1405-2.35758E+04-2.36578E+05-4.83972E+04-2.35909E+03 2.03021E-10 4.63124E-11
 -1      1406-2.75525E+04-2.41250E+05-4.71537E+04-2.71244E+03-3.93274E-10-8.74599E-13
 -1      1407-3.12301E+04-2.45776E+05-4.64521E+04-3.00090E+03-4.37139E-10-1.28525E-11
 -1      1408-3.46973E+04-2.50298E+05-4.61702E+04-3.23251E+03-1.48351E-11 5.00838E-12
 -1      1409-3.80072E+04-2.54946E+05-4.62238E+04-3.41216E+03-8.68596E-11 9.16462E-12
 -1      1410-4.11897E+04-2.59836E+05-4.65525E+04-3.54214E+03-1.32989E-10-1.90943E-11
 -1      1411-4.42581E+04-2.65080E+05-4.71123E+04-3.62260E+03-2.63727E-10-2.22393E-11
 -1      1412-4.72137E+04-2.70786E+05-4.78703E+04-3.65183E+03-1.16397E-10-1.34330E-11
 -1      1413-5.00478E+04-2.77063E+05-4.88009E+04-3.62635E+03 2.57037E-10 8.51322E-12
 -1      1414-5.27431E+04-2.84023E+05-4.98841E+04-3.54105E+03-4.75257E-10-3.46186E-11
 -1      1415-5.52740E+04-2.91781E+05-5.11037E+04-3.38903E+03-1.16615E-11 1.37175E-11
 -1      1416-5.76064E+04-3.00462E+05-5.24460E+04-3.16158E+03-3.17380E-10-3.89411E-11
 -1      1417-5.96974E+04-3.10198E+05-5.38992E+04-2.84780E+03-4.96034E-10-1.24271E-11
 -1      1418-6.14942E+04-3.21133E+05-5.54526E+04-2.43430E+03-1.07910E-10-3.93610E-11
 -1      1419-6.29327E+04-3.33427E+05-5.70960E+04-1.90462E+03-1.16674E-10 2.72614E-11
 -1      1420-6.39355E+04-3.47254E+05-5.88196E+04-1.23859E+03-7.98556E-11-1.97146E-11
 -1      1421-6.44093E+04-3.62814E+05-6.06130E+04-4.11502E+02-2.54030E-10-1.50117E-11
 -1      1422-6.42417E+04-3.80330E+05-6.24653E+04 6.06817E+02-1.75964E-10-1.54307E-11
 -1      1423-6.32975E+04-4.00056E+05-6.43643E+04 1.85313E+03-3.66500E-11-1.95803E-11
 -1      1424-6.14137E+04-4.22284E+05-6.62962E+04 3.37190E+03-3.09135E-10-1.51198E-11
 -1      1425-5.83944E+04-4.47348E+05-6.82451E+04 5.21641E+03-8.18193E-11 3.80060E-12
 -1      1426-5.40040E+04-4.75636E+05-7.01920E+04 7.45000E+03-1.79354E-10-6.15686E-12
 -1      1427-4.79610E+04-5.07592E+05-7.21146E+04 1.01468E+04-5.29543E-10-2.83070E-11
 -1      1428-3.99300E+04-5.43729E+05-7.39860E+04 1.33928E+04 3.46456E-10 4.74463E-11
 -1      1429-2.95143E+04-5.84635E+05-7.57740E+04 1.72862E+04-2.18513E-10-3.67021E-11
 -1      1430-1.62475E+04-6.30983E+05-7.74401E+04 2.19390E+04 4.21530E-10 6.16134E-11
 -1      1431-1.19977E+04-6.85123E+05-8.03388E+04 2.49277E+04-1.64670E-10-1.64496E-11
 -1      1501-4.48164E+03-2.12380E+05-6.59229E+04-2.28441E+03 4.25815E-11-6.98134E-12
 -1      1502-7.87902E+03-2.19286E+05-5.85369E+04-2.29887E+03 2.25336E-10 2.25138E-11
 -1      1503-1.41977E+04-2.25614E+05-5.40359E+04-2.34552E+03-1.65764E-10-5.32672E-11
 -1      1504-1.93722E+04-2.31161E+05-5.10204E+04-2.41595E+03 1.51605E-09 2.55278E-11
 -1      1505-2.38418E+04-2.36185E+05-4.90239E+04-2.50509E+03-2.68586E-10-5.03703E-11
 -1      1506-2.78580E+04-2.40891E+05-4.77596E+04-2.60970E+03-5.24391E-10 2.32880E-11
 -1      1507-3.15704E+04-2.45447E+05-4.70433E+04-2.72758E+03 9.26580E-10 4.42763E-11
 -1      1508-3.50690E+04-2.49999E+05-4.67514E+04-2.85716E+03-5.27923E-10-2.00894E-11
 -1      1509-3.84076E+04-2.54675E+05-4.67985E+04-2.99721E+03 5.35495E-10-7.35904E-12
 -1      1510-4.16164E+04-2.59593E+05-4.71236E+04-3.14667E+03-6.11803E-10 1.29138E-11
 -1      1511-4.47090E+04-2.64866E+05-4.76820E+04-3.30453E+03 7.40801E-10 3.78728E-11
 -1      1512-4.76866E+04-2.70602E+05-4.84404E+04-3.46982E+03-1.82538E-10-4.26951E-12
 -1      1513-5.05406E+04-2.76911E+05-4.93728E+04-3.64146E+03-7.80232E-10-3.71304E-12
 -1      1514-5.32534E+04-2.83905E+05-5.04591E+04-3.81829E+03 2.10918E-10-1.53181E-11
 -1      1515-5.57991E+04-2.91702E+05-5.16827E+04-3.99896E+03 3.84584E-11 8.69742E-11
 -1      1516-5.81431E+04-3.00425E+05-5.30296E+04-4.18191E+03-2.99224E-10 1.24660E-11
 -1      1517-6.02419E+04-3.10209E+05-5.44880E+04-4.36526E+03 2.60346E-10-6.19493E-11
 -1      1518-6.20418E+04-3.21199E+05-5.60469E+04-4.54671E+03-2.52585E-10-2.16123E-11
 -1      1519-6.34774E+04-3.33556E+05-5.76960E+04-4.72343E+03 9.44403E-11 1.11638E-10
 -1      1520-6.44697E+04-3.47458E+05-5.94252E+04-4.89187E+03-1.95592E-10-8.66753E-11
 -1      1521-6.49233E+04-3.63107E+05-6.12239E+04-5.04756E+03 5.26260E-10 2.71791E-11
 -1      1522-6.47232E+04-3.80728E+05-6.30808E+04-5.18492E+03-3.68293E-10 1.91800E-11
 -1      1523-6.37310E+04-4.00581E+05-6.49835E+04-5.29690E+03 2.43599E-11-1.52559E-11
 -1      1524-6.17798E+04-4.22961E+05-6.69177E+04-5.37474E+03 2.30853E-10-2.08347E-11
 -1      1525-5.86690E+04-4.48209E+05-6.88669E+04-5.40764E+03 4.70574E-10 6.73657E-11
 -1      1526-5.41579E+04-4.76716E+05-7.08116E+04-5.38235E+03 3.77374E-10-1.65193E-12
 -1      1527-4.79592E+04-5.08935E+05-7.27286E+04-5.28297E+03-5.24832E-10-1.68296E-11
 -1      1528-3.97312E+04-5.45384E+05-7.45903E+04-5.09054E+03 2.56656E-10 1.08883E-11
 -1      1529-2.90704E+04-5.86658E+05-7.63633E+04-4.78280E+03 1.01457E-10 6.22020E-13
 -1      1530-1.55028E+04-6.33435E+05-7.80078E+04-4.33379E+03-6.55315E-10 5.11209E-11
 -1      1531-1.10971E+04-6.87890E+05-8.08798E+04-3.82562E+03 3.35007E-10-1.06629E-10
 -3
    1PSTEP                        13           7           1          
  100CL  107 7.00000E-01         496                     0    7           1
 -4  DISP        4    1
 -5  D1          1    2    1    0
 -5  D2          1    2    2    0
 -5  D3          1    2    3    0
 -5  ALL         1    2    0    0    1ALL
 -1         1 1.35187E-08 8.02450E-08 8.27752E-25
 -1         2 1.40881E-08 8.13809E-08 8.62620E-25
 -1         3 1.48664E-08 8.24514E-08 9.10274E-25
 -1         4 1.58018E-08 8.34761E-08 9.67552E-25
 -1         5 1.68709E-08 8.44747E-08 1.03301E-24
 -1         6 1.80629E-08 8.54699E-08 1.10600E-24
 -1         7 1.93730E-08 8.64871E-08 1.18621E-24
 -1         8 2.07995E-08 8.75534E-08 1.27356E-24
 -1         9 2.23424E-08 8.86971E-08 1.36803E-24
 -1        10 2.40022E-08 8.99478E-08 1.46966E-24
 -1        11 2.57796E-08 9.13365E-08 1.57849E-24
 -1        12 2.76752E-08 9.28957E-08 1.69456E-24
 -1        13 2.96890E-08 9.46596E-08 1.81787E-24
 -1        14 3.18201E-08 9.66645E-08 1.94835E-24
 -1        15 3.40662E-08 9.89485E-08 2.08589E-24
 -1        16 3.64236E-08 1.01552E-07 2.23023E-24
 -1        17 3.88860E-08 1.04518E-07 2.38100E-24
 -1        18 4.14443E-08 1.07890E-07 2.53765E-24
 -1        19 4.40859E-08 1.11713E-07 2.69939E-24
 -1        20 4.67934E-08 1.16035E-07 2.86518E-24
 -1        21 4.95442E-08 1.20901E-07 3.03361E-24
 -1        22 5.23087E-08 1.26353E-07 3.20288E-24
 -1        23 5.50496E-08 1.32427E-07 3.37070E-24
 -1        24 5.77202E-08 1.39151E-07 3.53423E-24
 -1        25 6.02639E-08 1.46533E-07 3.68998E-24
 -1        26 6.26133E-08 1.54555E-07 3.83383E-24
 -1        27 6.46919E-08 1.63156E-07 3.96110E-24
 -1        28 6.64187E-08 1.72209E-07 4.06684E-24
 -1        29 6.77200E-08 1.81480E-07 4.14652E-24
 -1        30 6.85557E-08 1.90565E-07 4.19769E-24
 -1        31 6.89976E-08 1.98947E-07 4.22474E-24
 -1       101 9.89345E-09 7.06023E-08 6.05779E-25
 -1       102 1.05959E-08 7.17675E-08 6.48792E-25
 -1       103 1.14063E-08 7.28302E-08 6.98413E-25
 -1       104 1.23059E-08 7.38169E-08 7.53495E-25
 -1       105 1.32799E-08 7.47562E-08 8.13130E-25
 -1       106 1.43169E-08 7.56769E-08 8.76631E-25
 -1       107 1.54091E-08 7.66081E-08 9.43506E-25
 -1       108 1.65507E-08 7.75790E-08 1.01340E-24
 -1       109 1.77373E-08 7.86194E-08 1.08606E-24
 -1       110 1.89655E-08 7.97605E-08 1.16126E-24
 -1       111 2.02320E-08 8.10343E-08 1.23881E-24
 -1       112 2.15334E-08 8.24747E-08 1.31850E-24
 -1       113 2.28661E-08 8.41173E-08 1.40010E-24
 -1       114 2.42256E-08 8.59999E-08 1.48334E-24
 -1       115 2.56069E-08 8.81625E-08 1.56792E-24
 -1       116 2.70039E-08 9.06476E-08 1.65346E-24
 -1       117 2.84095E-08 9.35002E-08 1.73952E-24
 -1       118 2.98158E-08 9.67674E-08 1.82563E-24
 -1       119 3.12138E-08 1.00498E-07 1.91123E-24
 -1       120 3.25937E-08 1.04743E-07 1.99573E-24
 -1       121 3.39455E-08 1.09552E-07 2.07849E-24
 -1       122 3.52589E-08 1.14972E-07 2.15892E-24
 -1       123 3.65246E-08 1.21049E-07 2.23641E-24
 -1       124 3.77346E-08 1.27816E-07 2.31050E-24
 -1       125 3.88836E-08 1.35295E-07 2.38086E-24
 -1       126 3.99696E-08 1.43484E-07 2.44735E-24
 -1       127 4.09931E-08 1.52351E-07 2.51002E-24
 -1       128 4.19544E-08 1.61816E-07 2.56888E-24
 -1       129 4.28420E-08 1.71732E-07 2.62323E-24
 -1       130 4.36082E-08 1.81858E-07 2.67015E-24
 -1       131 4.41626E-08 1.91573E-07 2.70409E-24
 -1       201 8.64947E-09 6.44252E-08 5.29610E-25
 -1       202 9.18435E-09 6.56336E-08 5.62360E-25
 -1       203 9.86181E-09 6.67153E-08 6.03842E-25
 -1       204 1.06313E-08 6.77014E-08 6.50960E-25
 -1       205 1.14683E-08 6.86311E-08 7.02207E-25
 -1       206 1.23584E-08 6.95366E-08 7.56707E-25
 -1       207 1.32921E-08 7.04478E-08 8.13879E-25
 -1       208 1.42628E-08 7.13929E-08 8.73314E-25
 -1       209 1.52655E-08 7.24003E-08 9.34709E-25
 -1       210 1.62963E-08 7.34988E-08 9.97825E-25
 -1       211 1.73519E-08 7.47181E-08 1.06246E-24
 -1       212 1.84292E-08 7.60892E-08 1.12842E-24
 -1       213 1.95251E-08 7.76447E-08 1.19553E-24
 -1       214 2.06365E-08 7.94191E-08 1.26358E-24
 -1       215 2.17596E-08 8.14490E-08 1.33235E-24
 -1       216 2.28907E-08 8.37731E-08 1.40161E-24
 -1       217 2.40254E-08 8.64324E-08 1.47108E-24
 -1       218 2.51589E-08 8.94700E-08 1.54049E-24
 -1       219 2.62863E-08 9.29311E-08 1.60952E-24
 -1       220 2.74025E-08 9.68623E-08 1.67786E-24
 -1       221 2.85021E-08 1.01311E-07 1.74519E-24
 -1       222 2.95801E-08 1.06324E-07 1.81120E-24
 -1       223 3.06320E-08 1.11946E-07 1.87561E-24
 -1       224 3.16535E-08 1.18219E-07 1.93815E-24
 -1       225 3.26401E-08 1.25178E-07 1.99857E-24
 -1       226 3.35863E-08 1.32849E-07 2.05650E-24
 -1       227 3.44813E-08 1.41245E-07 2.11130E-24
 -1       228 3.53013E-08 1.50371E-07 2.16151E-24
 -1       229 3.59897E-08 1.60226E-07 2.20366E-24
 -1       230 3.64112E-08 1.70841E-07 2.22947E-24
 -1       231 3.61084E-08 1.82503E-07 2.21093E-24
 -1       301 7.13986E-09 5.83861E-08 4.37176E-25
 -1       302 7.66104E-09 5.96688E-08 4.69088E-25
 -1       303 8.25739E-09 6.07536E-08 5.05602E-25
 -1       304 8.92093E-09 6.17290E-08 5.46231E-25
 -1       305 9.63584E-09 6.26397E-08 5.90006E-25
 -1       306 1.03904E-08 6.35211E-08 6.36210E-25
 -1       307 1.11763E-08 6.44035E-08 6.84330E-25
 -1       308 1.19873E-08 6.53145E-08 7.33988E-25
 -1       309 1.28188E-08 6.62808E-08 7.84897E-25
 -1       310 1.36669E-08 6.73292E-08 8.36831E-25
 -1       311 1.45288E-08 6.84870E-08 8.89604E-25
 -1       312 1.54018E-08 6.97826E-08 9.43056E-25
 -1       313 1.62834E-08 7.12456E-08 9.97039E-25
 -1       314 1.71715E-08 7.29073E-08 1.05141E-24
 -1       315 1.80637E-08 7.48010E-08 1.10604E-24
 -1       316 1.89578E-08 7.69617E-08 1.16079E-24
 -1       317 1.98514E-08 7.94268E-08 1.21551E-24
 -1       318 2.07424E-08 8.22356E-08 1.27006E-24
 -1       319 2.16283E-08 8.54294E-08 1.32431E-24
 -1       320 2.25070E-08 8.90515E-08 1.37811E-24
 -1       321 2.33762E-08 9.31464E-08 1.43133E-24
 -1       322 2.42336E-08 9.77598E-08 1.48383E-24
 -1       323 2.50766E-08 1.02938E-07 1.53545E-24
 -1       324 2.59017E-08 1.08726E-07 1.58597E-24
 -1       325 2.67032E-08 1.15169E-07 1.63504E-24
 -1       326 2.74702E-08 1.22312E-07 1.68201E-24
 -1       327 2.81825E-08 1.30201E-07 1.72562E-24
 -1       328 2.88004E-08 1.38891E-07 1.76346E-24
 -1       329 2.92474E-08 1.48462E-07 1.79083E-24
 -1       330 2.93730E-08 1.59075E-07 1.79852E-24
 -1       331 2.89283E-08 1.71069E-07 1.77129E-24
 -1       401 5.56501E-09 5.25671E-08 3.40747E-25
 -1       402 6.06698E-09 5.38628E-08 3.71483E-25
 -1       403 6.61381E-09 5.49457E-08 4.04966E-25
 -1       404 7.19542E-09 5.59015E-08 4.40578E-25
 -1       405 7.80638E-09 5.67851E-08 4.77987E-25
 -1       406 8.44050E-09 5.76343E-08 5.16815E-25
 -1       407 9.09234E-09 5.84798E-08 5.56727E-25
 -1       408 9.75740E-09 5.93486E-08 5.97449E-25
 -1       409 1.04320E-08 6.02660E-08 6.38757E-25
 -1       410 1.11133E-08 6.12568E-08 6.80469E-25
 -1       411 1.17987E-08 6.23461E-08 7.22436E-25
 -1       412 1.24863E-08 6.35596E-08 7.64538E-25
 -1       413 1.31744E-08 6.49242E-08 8.06672E-25
 -1       414 1.38616E-08 6.64683E-08 8.48752E-25
 -1       415 1.45468E-08 6.82217E-08 8.90707E-25
 -1       416 1.52290E-08 7.02163E-08 9.32478E-25
 -1       417 1.59074E-08 7.24857E-08 9.74018E-25
 -1       418 1.65815E-08 7.50658E-08 1.01529E-24
 -1       419 1.72508E-08 7.79943E-08 1.05627E-24
 -1       420 1.79149E-08 8.13112E-08 1.09693E-24
 -1       421 1.85736E-08 8.50586E-08 1.13727E-24
 -1       422 1.92261E-08 8.92804E-08 1.17722E-24
 -1       423 1.98711E-08 9.40229E-08 1.21671E-24
 -1       424 2.05052E-08 9.93344E-08 1.25554E-24
 -1       425 2.11219E-08 1.05267E-07 1.29330E-24
 -1       426 2.17083E-08 1.11876E-07 1.32920E-24
 -1       427 2.22411E-08 1.19228E-07 1.36183E-24
 -1       428 2.26795E-08 1.27407E-07 1.38867E-24
 -1       429 2.29540E-08 1.36529E-07 1.40548E-24
 -1       430 2.29557E-08 1.46778E-07 1.40559E-24
 -1       431 2.25266E-08 1.58458E-07 1.37931E-24
 -1       501 3.98683E-09 4.69695E-08 2.44115E-25
 -1       502 4.47235E-09 4.82360E-08 2.73843E-25
 -1       503 4.97435E-09 4.92936E-08 3.04581E-25
 -1       504 5.48763E-09 5.02194E-08 3.36010E-25
 -1       505 6.00954E-09 5.10674E-08 3.67966E-25
 -1       506 6.53789E-09 5.18766E-08 4.00317E-25
 -1       507 7.07022E-09 5.26777E-08 4.32911E-25
 -1       508 7.60404E-09 5.34968E-08 4.65598E-25
 -1       509 8.13711E-09 5.43579E-08 4.98238E-25
 -1       510 8.66751E-09 5.52839E-08 5.30715E-25
 -1       511 9.19364E-09 5.62978E-08 5.62930E-25
 -1       512 9.71426E-09 5.74229E-08 5.94807E-25
 -1       513 1.02285E-08 5.86834E-08 6.26292E-25
 -1       514 1.07357E-08 6.01047E-08 6.57349E-25
 -1       515 1.12357E-08 6.17138E-08 6.87963E-25
 -1       516 1.17285E-08 6.35392E-08 7.18140E-25
 -1       517 1.22146E-08 6.56112E-08 7.47903E-25
 -1       518 1.26946E-08 6.79623E-08 7.77295E-25
 -1       519 1.31695E-08 7.06269E-08 8.06375E-25
 -1       520 1.36404E-08 7.36419E-08 8.35209E-25
 -1       521 1.41084E-08 7.70466E-08 8.63860E-25
 -1       522 1.45739E-08 8.08833E-08 8.92366E-25
 -1       523 1.50368E-08 8.51972E-08 9.20705E-25
 -1       524 1.54945E-08 9.00380E-08 9.48735E-25
 -1       525 1.59415E-08 9.54606E-08 9.76104E-25
 -1       526 1.63664E-08 1.01528E-07 1.00212E-24
 -1       527 1.67490E-08 1.08316E-07 1.02555E-24
 -1       528 1.70564E-08 1.15919E-07 1.04437E-24
 -1       529 1.72376E-08 1.24463E-07 1.05546E-24
 -1       530 1.72205E-08 1.34126E-07 1.05442E-24
 -1       531 1.69145E-08 1.45158E-07 1.03568E-24
 -1       601 2.45133E-09 4.15861E-08 1.50095E-25
 -1       602 2.92077E-09 4.27924E-08 1.78840E-25
 -1       603 3.38185E-09 4.38018E-08 2.07071E-25
 -1       604 3.83412E-09 4.46830E-08 2.34764E-25
 -1       605 4.27786E-09 4.54853E-08 2.61935E-25
 -1       606 4.71318E-09 4.62463E-08 2.88590E-25
 -1       607 5.13976E-09 4.69955E-08 3.14709E-25
 -1       608 5.55689E-09 4.77579E-08 3.40250E-25
 -1       609 5.96369E-09 4.85558E-08 3.65159E-25
 -1       610 6.35932E-09 4.94104E-08 3.89383E-25
 -1       611 6.74310E-09 5.03425E-08 4.12882E-25
 -1       612 7.11457E-09 5.13731E-08 4.35627E-25
 -1       613 7.47359E-09 5.25240E-08 4.57610E-25
 -1       614 7.82033E-09 5.38178E-08 4.78842E-25
 -1       615 8.15538E-09 5.52786E-08 4.99357E-25
 -1       616 8.47968E-09 5.69317E-08 5.19214E-25
 -1       617 8.79458E-09 5.88045E-08 5.38495E-25
 -1       618 9.10179E-09 6.09260E-08 5.57306E-25
 -1       619 9.40339E-09 6.33274E-08 5.75772E-25
 -1       620 9.70161E-09 6.60427E-08 5.94033E-25
 -1       621 9.99874E-09 6.91082E-08 6.12226E-25
 -1       622 1.02967E-08 7.25639E-08 6.30472E-25
 -1       623 1.05967E-08 7.64536E-08 6.48840E-25
 -1       624 1.08982E-08 8.08261E-08 6.67300E-25
 -1       625 1.11980E-08 8.57370E-08 6.85659E-25
 -1       626 1.14888E-08 9.12513E-08 7.03465E-25
 -1       627 1.17572E-08 9.74464E-08 7.19898E-25
 -1       628 1.19816E-08 1.04419E-07 7.33640E-25
 -1       629 1.21308E-08 1.12291E-07 7.42775E-25
 -1       630 1.21637E-08 1.21221E-07 7.44787E-25
 -1       631 1.20330E-08 1.31416E-07 7.36784E-25
 -1       701 9.93408E-10 3.64058E-08 6.08267E-26
 -1       702 1.44771E-09 3.75274E-08 8.86437E-26
 -1       703 1.87128E-09 3.84690E-08 1.14579E-25
 -1       704 2.26872E-09 3.92904E-08 1.38914E-25
 -1       705 2.64308E-09 4.00361E-08 1.61837E-25
 -1       706 2.99638E-09 4.07401E-08 1.83470E-25
 -1       707 3.32985E-09 4.14299E-08 2.03888E-25
 -1       708 3.64411E-09 4.21286E-08 2.23130E-25
 -1       709 3.93946E-09 4.28567E-08 2.41215E-25
 -1       710 4.21603E-09 4.36337E-08 2.58149E-25
 -1       711 4.47396E-09 4.44782E-08 2.73942E-25
 -1       712 4.71357E-09 4.54089E-08 2.88613E-25
 -1       713 4.93540E-09 4.64451E-08 3.02196E-25
 -1       714 5.14036E-09 4.76070E-08 3.14746E-25
 -1       715 5.32971E-09 4.89156E-08 3.26340E-25
 -1       716 5.50517E-09 5.03937E-08 3.37083E-25
 -1       717 5.66888E-09 5.20652E-08 3.47107E-25
 -1       718 5.82345E-09 5.39561E-08 3.56572E-25
 -1       719 5.97191E-09 5.60946E-08 3.65662E-25
 -1       720 6.11762E-09 5.85113E-08 3.74584E-25
 -1       721 6.26411E-09 6.12396E-08 3.83553E-25
 -1       722 6.41485E-09 6.43165E-08 3.92783E-25
 -1       723 6.57289E-09 6.77834E-08 4.02460E-25
 -1       724 6.74031E-09 7.16870E-08 4.12711E-25
 -1       725 6.91757E-09 7.60810E-08 4.23565E-25
 -1       726 7.10270E-09 8.10285E-08 4.34901E-25
 -1       727 7.29035E-09 8.66045E-08 4.46390E-25
 -1       728 7.47110E-09 9.29005E-08 4.57458E-25
 -1       729 7.63130E-09 1.00029E-07 4.67267E-25
 -1       730 7.75409E-09 1.08128E-07 4.74786E-25
 -1       731 7.82270E-09 1.17369E-07 4.78986E-25
 -1       801-3.57586E-10 3.14138E-08-2.18951E-26
 -1       802 8.26340E-11 3.24312E-08 5.05970E-27
 -1       803 4.72377E-10 3.32882E-08 2.89238E-26
 -1       804 8.20927E-10 3.40363E-08 5.02656E-26
 -1       805 1.13401E-09 3.47143E-08 6.94360E-26
 -1       806 1.41536E-09 3.53524E-08 8.66627E-26
 -1       807 1.66744E-09 3.59752E-08 1.02098E-25
 -1       808 1.89194E-09 3.66035E-08 1.15844E-25
 -1       809 2.09005E-09 3.72559E-08 1.27975E-25
 -1       810 2.26272E-09 3.79495E-08 1.38547E-25
 -1       811 2.41081E-09 3.87009E-08 1.47615E-25
 -1       812 2.53530E-09 3.95268E-08 1.55237E-25
 -1       813 2.63737E-09 4.04438E-08 1.61487E-25
 -1       814 2.71854E-09 4.14697E-08 1.66457E-25
 -1       815 2.78070E-09 4.26228E-08 1.70263E-25
 -1       816 2.82623E-09 4.39230E-08 1.73051E-25
 -1       817 2.85800E-09 4.53912E-08 1.74996E-25
 -1       818 2.87941E-09 4.70505E-08 1.76307E-25
 -1       819 2.89440E-09 4.89256E-08 1.77225E-25
 -1       820 2.90741E-09 5.10439E-08 1.78022E-25
 -1       821 2.92329E-09 5.34354E-08 1.78994E-25
 -1       822 2.94720E-09 5.61340E-08 1.80458E-25
 -1       823 2.98436E-09 5.91774E-08 1.82733E-25
 -1       824 3.03984E-09 6.26090E-08 1.86130E-25
 -1       825 3.11823E-09 6.64788E-08 1.90930E-25
 -1       826 3.22335E-09 7.08454E-08 1.97367E-25
 -1       827 3.35796E-09 7.57780E-08 2.05609E-25
 -1       828 3.52384E-09 8.13599E-08 2.15766E-25
 -1       829 3.72224E-09 8.76905E-08 2.27914E-25
 -1       830 3.95524E-09 9.48894E-08 2.42181E-25
 -1       831 4.22815E-09 1.03098E-07 2.58891E-25
 -1       901-1.57679E-09 2.65925E-08-9.65470E-26
 -1       902-1.14935E-09 2.74901E-08-7.03751E-26
 -1       903-7.89508E-10 2.82484E-08-4.83418E-26
 -1       904-4.83805E-10 2.89111E-08-2.96235E-26
 -1       905-2.24066E-10 2.95114E-08-1.37196E-26
 -1       906-5.03111E-12 3.00752E-08-3.08056E-28
 -1       907 1.76859E-10 3.06238E-08 1.08291E-26
 -1       908 3.24127E-10 3.11754E-08 1.98464E-26
 -1       909 4.38684E-10 3.17463E-08 2.68607E-26
 -1       910 5.22108E-10 3.23513E-08 3.19688E-26
 -1       911 5.75868E-10 3.30050E-08 3.52606E-26
 -1       912 6.01491E-10 3.37215E-08 3.68295E-26
 -1       913 6.00703E-10 3.45153E-08 3.67812E-26
 -1       914 5.75544E-10 3.54016E-08 3.52408E-26
 -1       915 5.28469E-10 3.63961E-08 3.23583E-26
 -1       916 4.62429E-10 3.75159E-08 2.83147E-26
 -1       917 3.80939E-10 3.87789E-08 2.33250E-26
 -1       918 2.88143E-10 4.02050E-08 1.76431E-26
 -1       919 1.88850E-10 4.18158E-08 1.15633E-26
 -1       920 8.85563E-11 4.36351E-08 5.42233E-27
 -1       921-6.54267E-12 4.56895E-08-4.00610E-28
 -1       922-8.95737E-11 4.80086E-08-5.48463E-27
 -1       923-1.53012E-10 5.06264E-08-9.36899E-27
 -1       924-1.88720E-10 5.35814E-08-1.15554E-26
 -1       925-1.87959E-10 5.69187E-08-1.15088E-26
 -1       926-1.41344E-10 6.06904E-08-8.65452E-27
 -1       927-3.86509E-11 6.49582E-08-2.36661E-27
 -1       928 1.31600E-10 6.97950E-08 8.05790E-27
 -1       929 3.82941E-10 7.52866E-08 2.34476E-26
 -1       930 7.32229E-10 8.15341E-08 4.48346E-26
 -1       931 1.20147E-09 8.86546E-08 7.35667E-26
 -1      1001-2.64314E-09 2.19218E-08-1.61840E-25
 -1      1002-2.22697E-09 2.26870E-08-1.36358E-25
 -1      1003-1.89287E-09 2.33352E-08-1.15901E-25
 -1      1004-1.62379E-09 2.39024E-08-9.94254E-26
 -1      1005-1.40944E-09 2.44161E-08-8.63006E-26
 -1      1006-1.24320E-09 2.48980E-08-7.61216E-26
 -1      1007-1.12059E-09 2.53658E-08-6.86139E-26
 -1      1008-1.03839E-09 2.58350E-08-6.35807E-26
 -1      1009-9.94113E-10 2.63192E-08-6.08699E-26
 -1      1010-9.85687E-10 2.68310E-08-6.03539E-26
 -1      1011-1.01117E-09 2.73826E-08-6.19141E-26
 -1      1012-1.06858E-09 2.79859E-08-6.54295E-26
 -1      1013-1.15576E-09 2.86530E-08-7.07673E-26
 -1      1014-1.27021E-09 2.93966E-08-7.77753E-26
 -1      1015-1.40901E-09 3.02298E-08-8.62744E-26
 -1      1016-1.56871E-09 3.11667E-08-9.60529E-26
 -1      1017-1.74522E-09 3.22227E-08-1.06860E-25
 -1      1018-1.93371E-09 3.34142E-08-1.18402E-25
 -1      1019-2.12858E-09 3.47595E-08-1.30334E-25
 -1      1020-2.32331E-09 3.62787E-08-1.42257E-25
 -1      1021-2.51043E-09 3.79945E-08-1.53714E-25
 -1      1022-2.68139E-09 3.99323E-08-1.64182E-25
 -1      1023-2.82645E-09 4.21212E-08-1.73065E-25
 -1      1024-2.93459E-09 4.45945E-08-1.79686E-25
 -1      1025-2.99323E-09 4.73907E-08-1.83276E-25
 -1      1026-2.98799E-09 5.05548E-08-1.82955E-25
 -1      1027-2.90220E-09 5.41394E-08-1.77702E-25
 -1      1028-2.71630E-09 5.82060E-08-1.66320E-25
 -1      1029-2.40688E-09 6.28264E-08-1.47374E-25
 -1      1030-1.94552E-09 6.80841E-08-1.19125E-25
 -1      1031-1.29728E-09 7.40749E-08-7.94326E-26
 -1      1101-3.53911E-09 1.73793E-08-2.16701E-25
 -1      1102-3.13250E-09 1.80024E-08-1.91804E-25
 -1      1103-2.81975E-09 1.85313E-08-1.72654E-25
 -1      1104-2.58091E-09 1.89948E-08-1.58030E-25
 -1      1105-2.40389E-09 1.94146E-08-1.47191E-25
 -1      1106-2.28094E-09 1.98080E-08-1.39663E-25
 -1      1107-2.20681E-09 2.01894E-08-1.35124E-25
 -1      1108-2.17772E-09 2.05711E-08-1.33342E-25
 -1      1109-2.19073E-09 2.09641E-08-1.34139E-25
 -1      1110-2.24336E-09 2.13786E-08-1.37362E-25
 -1      1111-2.33332E-09 2.18245E-08-1.42870E-25
 -1      1112-2.45828E-09 2.23112E-08-1.50521E-25
 -1      1113-2.61571E-09 2.28487E-08-1.60161E-25
 -1      1114-2.80277E-09 2.34468E-08-1.71615E-25
 -1      1115-3.01616E-09 2.41163E-08-1.84680E-25
 -1      1116-3.25197E-09 2.48685E-08-1.99119E-25
 -1      1117-3.50562E-09 2.57157E-08-2.14650E-25
 -1      1118-3.77173E-09 2.66711E-08-2.30944E-25
 -1      1119-4.04393E-09 2.77495E-08-2.47611E-25
 -1      1120-4.31484E-09 2.89673E-08-2.64199E-25
 -1      1121-4.57579E-09 3.03428E-08-2.80177E-25
 -1      1122-4.81672E-09 3.18970E-08-2.94930E-25
 -1      1123-5.02596E-09 3.36535E-08-3.07741E-25
 -1      1124-5.18990E-09 3.56396E-08-3.17780E-25
 -1      1125-5.29268E-09 3.78870E-08-3.24072E-25
 -1      1126-5.31568E-09 4.04324E-08-3.25481E-25
 -1      1127-5.23697E-09 4.33184E-08-3.20662E-25
 -1      1128-5.03050E-09 4.65947E-08-3.08019E-25
 -1      1129-4.66512E-09 5.03189E-08-2.85647E-25
 -1      1130-4.10343E-09 5.45575E-08-2.51254E-25
 -1      1131-3.30046E-09 5.93865E-08-2.02088E-25
 -1      1201-4.25053E-09 1.29414E-08-2.60261E-25
 -1      1202-3.85156E-09 1.34149E-08-2.35832E-25
 -1      1203-3.55561E-09 1.38176E-08-2.17711E-25
 -1      1204-3.34046E-09 1.41707E-08-2.04537E-25
 -1      1205-3.19261E-09 1.44907E-08-1.95485E-25
 -1      1206-3.10341E-09 1.47904E-08-1.90023E-25
 -1      1207-3.06700E-09 1.50806E-08-1.87794E-25
 -1      1208-3.07917E-09 1.53706E-08-1.88538E-25
 -1      1209-3.13662E-09 1.56687E-08-1.92056E-25
 -1      1210-3.23659E-09 1.59827E-08-1.98177E-25
 -1      1211-3.37650E-09 1.63198E-08-2.06744E-25
 -1      1212-3.55376E-09 1.66873E-08-2.17598E-25
 -1      1213-3.76558E-09 1.70925E-08-2.30568E-25
 -1      1214-4.00885E-09 1.75431E-08-2.45463E-25
 -1      1215-4.27994E-09 1.80470E-08-2.62062E-25
 -1      1216-4.57461E-09 1.86128E-08-2.80105E-25
 -1      1217-4.88790E-09 1.92496E-08-2.99287E-25
 -1      1218-5.21390E-09 1.99675E-08-3.19249E-25
 -1      1219-5.54569E-09 2.07776E-08-3.39564E-25
 -1      1220-5.87508E-09 2.16925E-08-3.59733E-25
 -1      1221-6.19246E-09 2.27261E-08-3.79166E-25
 -1      1222-6.48652E-09 2.38942E-08-3.97172E-25
 -1      1223-6.74394E-09 2.52150E-08-4.12933E-25
 -1      1224-6.94903E-09 2.67093E-08-4.25491E-25
 -1      1225-7.08329E-09 2.84011E-08-4.33712E-25
 -1      1226-7.12478E-09 3.03184E-08-4.36253E-25
 -1      1227-7.04747E-09 3.24936E-08-4.31519E-25
 -1      1228-6.82037E-09 3.49641E-08-4.17613E-25
 -1      1229-6.40649E-09 3.77732E-08-3.92271E-25
 -1      1230-5.76169E-09 4.09706E-08-3.52790E-25
 -1      1231-4.83343E-09 4.46132E-08-2.95952E-25
 -1      1301-4.76645E-09 8.58300E-09-2.91851E-25
 -1      1302-4.37305E-09 8.90151E-09-2.67764E-25
 -1      1303-4.08921E-09 9.17275E-09-2.50384E-25
 -1      1304-3.89107E-09 9.41084E-09-2.38252E-25
 -1      1305-3.76413E-09 9.62657E-09-2.30479E-25
 -1      1306-3.69909E-09 9.82858E-09-2.26496E-25
 -1      1307-3.68965E-09 1.00241E-08-2.25918E-25
 -1      1308-3.73126E-09 1.02192E-08-2.28467E-25
 -1      1309-3.82042E-09 1.04196E-08-2.33925E-25
 -1      1310-3.95412E-09 1.06303E-08-2.42112E-25
 -1      1311-4.12961E-09 1.08564E-08-2.52857E-25
 -1      1312-4.34412E-09 1.11025E-08-2.65992E-25
 -1      1313-4.59467E-09 1.13738E-08-2.81333E-25
 -1      1314-4.87793E-09 1.16751E-08-2.98677E-25
 -1      1315-5.19008E-09 1.20119E-08-3.17790E-25
 -1      1316-5.52662E-09 1.23898E-08-3.38397E-25
 -1      1317-5.88228E-09 1.28151E-08-3.60174E-25
 -1      1318-6.25081E-09 1.32943E-08-3.82739E-25
 -1      1319-6.62482E-09 1.38352E-08-4.05640E-25
 -1      1320-6.99557E-09 1.44459E-08-4.28341E-25
 -1      1321-7.35269E-09 1.51359E-08-4.50208E-25
 -1      1322-7.68394E-09 1.59159E-08-4.70490E-25
 -1      1323-7.97481E-09 1.67981E-08-4.88300E-25
 -1      1324-8.20806E-09 1.77966E-08-5.02582E-25
 -1      1325-8.36327E-09 1.89276E-08-5.12086E-25
 -1      1326-8.41611E-09 2.02098E-08-5.15321E-25
 -1      1327-8.33766E-09 2.16650E-08-5.10517E-25
 -1      1328-8.09342E-09 2.33182E-08-4.95562E-25
 -1      1329-7.64234E-09 2.51984E-08-4.67943E-25
 -1      1330-6.93559E-09 2.73387E-08-4.24668E-25
 -1      1331-5.91524E-09 2.97769E-08-3.62192E-25
 -1      1401-5.07909E-09 4.27806E-09-3.10995E-25
 -1      1402-4.68910E-09 4.43816E-09-2.87115E-25
 -1      1403-4.41256E-09 4.57461E-09-2.70183E-25
 -1      1404-4.22467E-09 4.69443E-09-2.58678E-25
 -1      1405-4.11030E-09 4.80303E-09-2.51675E-25
 -1      1406-4.05977E-09 4.90470E-09-2.48581E-25
 -1      1407-4.06652E-09 5.00304E-09-2.48994E-25
 -1      1408-4.12581E-09 5.10116E-09-2.52624E-25
 -1      1409-4.23396E-09 5.20183E-09-2.59247E-25
 -1      1410-4.38788E-09 5.30765E-09-2.68671E-25
 -1      1411-4.58468E-09 5.42106E-09-2.80722E-25
 -1      1412-4.82149E-09 5.54451E-09-2.95222E-25
 -1      1413-5.09523E-09 5.68044E-09-3.11982E-25
 -1      1414-5.40243E-09 5.83140E-09-3.30793E-25
 -1      1415-5.73915E-09 6.00005E-09-3.51410E-25
 -1      1416-6.10074E-09 6.18925E-09-3.73550E-25
 -1      1417-6.48174E-09 6.40208E-09-3.96879E-25
 -1      1418-6.87568E-09 6.64194E-09-4.21000E-25
 -1      1419-7.27489E-09 6.91257E-09-4.45444E-25
 -1      1420-7.67026E-09 7.21818E-09-4.69652E-25
 -1      1421-8.05099E-09 7.56349E-09-4.92965E-25
 -1      1422-8.40426E-09 7.95390E-09-5.14595E-25
 -1      1423-8.71479E-09 8.39554E-09-5.33609E-25
 -1      1424-8.96444E-09 8.89548E-09-5.48895E-25
 -1      1425-9.13160E-09 9.46189E-09-5.59131E-25
 -1      1426-9.19052E-09 1.01042E-08-5.62738E-25
 -1      1427-9.11052E-09 1.08333E-08-5.57840E-25
 -1      1428-8.85507E-09 1.16618E-08-5.42198E-25
 -1      1429-8.38067E-09 1.26041E-08-5.13151E-25
 -1      1430-7.63574E-09 1.36768E-08-4.67539E-25
 -1      1431-6.55913E-09 1.48989E-08-4.01618E-25
 -1      1501-5.18383E-09 0.00000E+00-3.17407E-25
 -1      1502-4.79497E-09 0.00000E+00-2.93597E-25
 -1      1503-4.52088E-09 0.00000E+00-2.76815E-25
 -1      1504-4.33640E-09 0.00000E+00-2.65519E-25
 -1      1505-4.22623E-09 0.00000E+00-2.58774E-25
 -1      1506-4.18055E-09 0.00000E+00-2.55976E-25
 -1      1507-4.19269E-09 0.00000E+00-2.56720E-25
 -1      1508-4.25787E-09 0.00000E+00-2.60711E-25
 -1      1509-4.37236E-09 0.00000E+00-2.67721E-25
 -1      1510-4.53301E-09 0.00000E+00-2.77557E-25
 -1      1511-4.73691E-09 0.00000E+00-2.90042E-25
 -1      1512-4.98115E-09 0.00000E+00-3.04997E-25
 -1      1513-5.26260E-09 0.00000E+00-3.22231E-25
 -1      1514-5.57778E-09 0.00000E+00-3.41529E-25
 -1      1515-5.92268E-09 0.00000E+00-3.62647E-25
 -1      1516-6.29260E-09 0.00000E+00-3.85298E-25
 -1      1517-6.68203E-09 0.00000E+00-4.09143E-25
 -1      1518-7.08442E-09 0.00000E+00-4.33781E-25
 -1      1519-7.49200E-09 0.00000E+00-4.58738E-25
 -1      1520-7.89556E-09 0.00000E+00-4.83447E-25
 -1      1521-8.28412E-09 0.00000E+00-5.07239E-25
 -1      1522-8.64467E-09 0.00000E+00-5.29316E-25
 -1      1523-8.96169E-09 0.00000E+00-5.48727E-25
 -1      1524-9.21672E-09 0.00000E+00-5.64343E-25
 -1      1525-9.38776E-09 0.00000E+00-5.74816E-25
 -1      1526-9.44858E-09 0.00000E+00-5.78540E-25
 -1      1527-9.36793E-09 0.00000E+00-5.73602E-25
 -1      1528-9.10858E-09 0.00000E+00-5.57722E-25
 -1      1529-8.62626E-09 0.00000E+00-5.28189E-25
 -1      1530-7.86843E-09 0.00000E+00-4.81786E-25
 -1      1531-6.77290E-09 0.00000E+00-4.14707E-25
 -3
    1PSTEP                        14           7           1          
  100CL  107 7.00000E-01         496                     0    7           1
 -4  STRESS      6    1
 -5  SXX         1    4    1    1
 -5  SYY         1    4    2    2
 -5  SZZ         1    4    3    3
 -5  SXY         1    4    1    2
 -5  SYZ         1    4    2    3
 -5  SZX         1    4    3    1
 -1         1 2.50266E+04-3.24230E+05 1.79846E+05-3.33548E+03-2.10290E-09 3.82172E-10
 -1         2 2.60541E+04-3.31940E+05 1.49211E+05-2.79991E+03 9.48375E-10 1.47301E-10
 -1         3 4.48949E+04-3.30233E+05 1.37100E+05-4.87375E+03 7.67770E-10-1.27632E-10
 -1         4 6.04835E+04-3.29238E+05 1.29900E+05-7.08595E+03-6.32362E-10 2.08176E-11
 -1         5 7.51256E+04-3.28259E+05 1.26421E+05-9.23027E+03 2.86451E-09 1.53264E-10
 -1         6 8.97884E+04-3.27011E+05 1.25839E+05-1.11813E+04-5.79180E-10-2.43678E-10
 -1         7 1.04857E+05-3.25420E+05 1.27548E+05-1.28927E+04-3.92213E-10 2.01925E-10
 -1         8 1.20471E+05-3.23489E+05 1.31099E+05-1.43582E+04-1.25575E-09-5.32229E-10
 -1         9 1.36654E+05-3.21248E+05 1.36151E+05-1.55825E+04 2.23009E-10-1.25153E-10
 -1        10 1.53367E+05-3.18734E+05 1.42440E+05-1.65677E+04 2.56373E-10 2.13136E-10
 -1        11 1.70536E+05-3.15985E+05 1.49752E+05-1.73085E+04-8.13352E-10-2.50260E-10
 -1        12 1.88049E+05-3.13037E+05 1.57903E+05-1.77889E+04 6.19641E-10 2.17680E-10
 -1        13 2.05758E+05-3.09931E+05 1.66723E+05-1.79815E+04 1.95900E-11 1.86477E-10
 -1        14 2.23467E+05-3.06712E+05 1.76047E+05-1.78472E+04-1.77938E-09-3.13402E-10
 -1        15 2.40926E+05-3.03434E+05 1.85699E+05-1.73345E+04 5.82152E-10 3.27702E-10
 -1        16 2.57816E+05-3.00168E+05 1.95484E+05-1.63790E+04 4.69661E-10-2.29355E-10
 -1        17 2.73733E+05-2.97004E+05 2.05179E+05-1.49033E+04 1.17006E-09-1.76303E-11
 -1        18 2.88170E+05-2.94058E+05 2.14520E+05-1.28173E+04-8.18193E-10-2.36506E-10
 -1        19 3.00499E+05-2.91478E+05 2.23190E+05-1.00195E+04 3.67277E-10-1.94817E-11
 -1        20 3.09946E+05-2.89453E+05 2.30810E+05-6.40034E+03-6.57047E-10-4.16023E-10
 -1        21 3.15573E+05-2.88210E+05 2.36926E+05-1.84958E+03-1.35844E-09-4.47317E-10
 -1        22 3.16260E+05-2.88022E+05 2.41004E+05 3.72868E+03 4.24053E-10-4.83701E-11
 -1        23 3.10705E+05-2.89188E+05 2.42429E+05 1.03884E+04 4.81759E-10 1.45891E-10
 -1        24 2.97458E+05-2.91994E+05 2.40525E+05 1.80888E+04-1.05891E-09-5.78448E-10
 -1        25 2.75018E+05-2.96620E+05 2.34613E+05 2.65975E+04 1.42954E-09 9.32177E-10
 -1        26 2.42078E+05-3.02934E+05 2.24150E+05 3.53061E+04 2.00123E-09 7.26363E-10
 -1        27 1.98044E+05-3.10055E+05 2.09018E+05 4.28766E+04-8.45024E-10-9.00511E-11
 -1        28 1.44126E+05-3.15434E+05 1.90150E+05 4.65574E+04 1.42985E-09-1.02521E-10
 -1        29 8.55800E+04-3.12987E+05 1.70802E+05 4.09302E+04-1.44223E-09-3.73848E-10
 -1        30 3.78755E+04-2.89012E+05 1.59714E+05 1.93327E+04 3.32695E-10 5.83143E-10
 -1        31 3.39306E+04-2.33739E+05 1.70053E+05 4.82597E+03 2.68649E-09 6.84586E-10
 -1       101 9.96947E+03-3.47202E+05 7.91815E+04-9.32536E+02 1.02921E-09 6.51111E-11
 -1       102 1.13637E+04-3.48169E+05 6.67690E+04-3.79584E+03 2.36123E-10-2.36572E-11
 -1       103 1.90133E+04-3.47422E+05 6.08113E+04-8.35028E+03-7.87395E-10-1.01211E-10
 -1       104 2.54776E+04-3.47646E+05 5.70233E+04-1.23512E+04-5.27240E-10 1.73715E-10
 -1       105 3.09329E+04-3.48487E+05 5.45679E+04-1.58232E+04-1.23305E-09-2.85352E-10
 -1       106 3.56129E+04-3.49737E+05 5.29795E+04-1.88109E+04-1.39168E-10-5.20093E-11
 -1       107 3.97248E+04-3.51274E+05 5.19834E+04-2.13563E+04-6.99913E-10-2.80037E-10
 -1       108 4.34105E+04-3.53035E+05 5.14024E+04-2.34859E+04-1.24220E-10 1.29405E-10
 -1       109 4.67495E+04-3.54992E+05 5.11108E+04-2.52126E+04 7.13295E-11-1.03248E-11
 -1       110 4.97705E+04-3.57140E+05 5.10119E+04-2.65348E+04-4.56145E-10-2.45986E-10
 -1       111 5.24633E+04-3.59487E+05 5.10251E+04-2.74360E+04-3.11248E-11 1.39575E-10
 -1       112 5.47875E+04-3.62049E+05 5.10792E+04-2.78847E+04 2.22805E-11-3.24274E-10
 -1       113 5.66806E+04-3.64846E+05 5.11084E+04-2.78342E+04-1.41653E-10 1.46657E-11
 -1       114 5.80631E+04-3.67896E+05 5.10507E+04-2.72226E+04 6.58399E-10-9.04419E-11
 -1       115 5.88438E+04-3.71219E+05 5.08469E+04-2.59731E+04-7.44989E-10-2.17007E-10
 -1       116 5.89251E+04-3.74829E+05 5.04412E+04-2.39942E+04 5.76742E-10 7.21635E-11
 -1       117 5.82093E+04-3.78732E+05 4.97829E+04-2.11805E+04-2.91653E-10 9.93311E-11
 -1       118 5.66070E+04-3.82922E+05 4.88287E+04-1.74151E+04-5.78141E-10-2.19792E-10
 -1       119 5.40483E+04-3.87373E+05 4.75477E+04-1.25724E+04 1.40429E-10 9.74084E-11
 -1       120 5.04978E+04-3.92032E+05 4.59276E+04-6.52462E+03-1.58197E-10-8.09352E-11
 -1       121 4.59747E+04-3.96798E+05 4.39834E+04 8.47509E+02 6.78308E-10 2.05625E-10
 -1       122 4.05768E+04-4.01508E+05 4.17694E+04 9.63748E+03-8.61156E-10-8.99078E-11
 -1       123 3.45091E+04-4.05895E+05 3.93945E+04 1.98846E+04 3.24088E-10-7.52188E-11
 -1       124 2.81098E+04-4.09542E+05 3.70395E+04 3.15278E+04 2.18390E-10 2.60488E-11
 -1       125 2.18614E+04-4.11798E+05 3.49756E+04 4.43328E+04 8.32174E-10-3.80212E-11
 -1       126 1.63534E+04-4.11639E+05 3.35776E+04 5.77742E+04-8.62756E-10-1.27233E-10
 -1       127 1.21253E+04-4.07440E+05 3.33166E+04 7.08461E+04 8.76543E-10-1.70961E-10
 -1       128 9.24221E+03-3.96550E+05 3.47070E+04 8.17316E+04-8.34459E-10 5.54405E-11
 -1       129 6.38593E+03-3.74459E+05 3.81716E+04 8.70963E+04 1.83594E-10-1.87597E-10
 -1       130 1.42263E+03-3.34333E+05 4.43773E+04 7.66049E+04-3.63200E-10-1.66595E-10
 -1       131 1.13319E+04-2.39913E+05 6.06307E+04 5.68385E+04 2.89062E-10-6.95538E-11
 -1       201 4.15354E+03-3.36316E+05 5.30837E+04-1.98017E+03-1.70747E-09-5.98963E-11
 -1       202 8.15020E+03-3.33062E+05 4.63221E+04-5.85377E+03 3.99592E-10-5.87828E-11
 -1       203 1.50294E+04-3.32124E+05 4.25524E+04-1.13791E+04-1.74467E-10 1.40466E-10
 -1       204 1.96158E+04-3.32356E+05 4.00346E+04-1.61693E+04 1.56523E-10-1.42435E-10
 -1       205 2.30366E+04-3.33127E+05 3.83299E+04-2.02366E+04-4.10000E-10-6.49847E-11
 -1       206 2.57570E+04-3.34142E+05 3.71731E+04-2.37328E+04-3.19212E-11-6.98917E-11
 -1       207 2.80069E+04-3.35275E+05 3.63946E+04-2.67253E+04 4.58056E-10 2.79934E-11
 -1       208 2.99183E+04-3.36479E+05 3.58819E+04-2.92449E+04 4.57390E-10 1.65124E-10
 -1       209 3.15684E+04-3.37753E+05 3.55567E+04-3.12982E+04-3.93568E-10 9.18066E-11
 -1       210 3.29989E+04-3.39121E+05 3.53615E+04-3.28734E+04 3.08426E-11 9.51517E-12
 -1       211 3.42269E+04-3.40617E+05 3.52519E+04-3.39433E+04 1.67201E-10 8.09764E-11
 -1       212 3.52514E+04-3.42287E+05 3.51918E+04-3.44651E+04-9.45377E-11-1.50243E-11
 -1       213 3.60590E+04-3.44181E+05 3.51500E+04-3.43812E+04 5.71257E-11-2.42005E-11
 -1       214 3.66269E+04-3.46352E+05 3.50986E+04-3.36191E+04-7.77739E-11-1.16304E-11
 -1       215 3.69265E+04-3.48858E+05 3.50120E+04-3.20917E+04 1.23204E-10-2.23377E-11
 -1       216 3.69262E+04-3.51760E+05 3.48660E+04-2.96981E+04-1.80762E-10-7.33351E-11
 -1       217 3.65942E+04-3.55117E+05 3.46381E+04-2.63258E+04 5.88536E-10 5.28634E-11
 -1       218 3.59021E+04-3.58989E+05 3.43075E+04-2.18527E+04-1.75734E-10-5.53851E-11
 -1       219 3.48283E+04-3.63427E+05 3.38561E+04-1.61529E+04 7.42716E-11 1.11628E-10
 -1       220 3.33624E+04-3.68467E+05 3.32698E+04-9.10400E+03 3.92117E-10 9.16968E-12
 -1       221 3.15094E+04-3.74111E+05 3.25406E+04-5.99136E+02 7.09369E-10 8.62074E-11
 -1       222 2.92925E+04-3.80303E+05 3.16700E+04 9.43480E+03-3.82547E-10-2.06457E-10
 -1       223 2.67527E+04-3.86885E+05 3.06731E+04 2.10109E+04-4.39609E-11 2.41007E-10
 -1       224 2.39393E+04-3.93517E+05 2.95856E+04 3.40446E+04 9.16581E-10 1.84307E-10
 -1       225 2.08804E+04-3.99551E+05 2.84721E+04 4.83022E+04 2.11914E-10-7.00767E-11
 -1       226 1.75098E+04-4.03799E+05 2.74394E+04 6.33351E+04-1.12083E-10 4.02695E-11
 -1       227 1.34990E+04-4.04120E+05 2.66547E+04 7.84047E+04 3.74056E-10 8.94831E-11
 -1       228 7.85888E+03-3.96630E+05 2.63704E+04 9.24302E+04 2.27576E-10 4.15297E-12
 -1       229-2.07694E+03-3.74136E+05 2.69481E+04 1.03966E+05 4.02906E-10 5.42136E-11
 -1       230-2.69348E+04-3.20293E+05 2.87402E+04 1.12343E+05-2.00031E-10 1.34351E-10
 -1       231-3.85478E+04-2.20083E+05 3.53296E+04 1.06651E+05-8.77726E-10-3.70254E-10
 -1       301 3.03947E+03-3.27831E+05 3.87845E+04-3.86606E+03 1.93997E-10 2.15038E-10
 -1       302 5.15912E+03-3.25211E+05 3.39238E+04-6.91135E+03 2.07510E-10 3.24095E-12
 -1       303 9.31022E+03-3.24925E+05 3.09093E+04-1.26990E+04-6.01726E-10-1.03342E-10
 -1       304 1.27128E+04-3.25607E+05 2.89157E+04-1.72954E+04 2.22336E-10 4.39142E-11
 -1       305 1.52630E+04-3.26778E+05 2.75378E+04-2.12268E+04 2.73993E-10 7.53191E-11
 -1       306 1.71968E+04-3.28195E+05 2.65605E+04-2.46079E+04-5.46124E-10-8.13052E-11
 -1       307 1.86848E+04-3.29750E+05 2.58506E+04-2.75055E+04 7.78966E-11 6.71871E-11
 -1       308 1.98377E+04-3.31408E+05 2.53206E+04-2.99459E+04-3.87346E-10-1.55980E-10
 -1       309 2.07264E+04-3.33173E+05 2.49097E+04-3.19311E+04 2.62253E-10-2.28830E-12
 -1       310 2.13952E+04-3.35073E+05 2.45739E+04-3.34455E+04-2.62845E-10-1.89471E-10
 -1       311 2.18697E+04-3.37153E+05 2.42793E+04-3.44590E+04 2.68465E-10 1.92645E-11
 -1       312 2.21620E+04-3.39464E+05 2.39988E+04-3.49281E+04-2.93447E-12 5.41783E-11
 -1       313 2.22748E+04-3.42068E+05 2.37094E+04-3.47968E+04-2.36098E-10-1.77547E-13
 -1       314 2.22043E+04-3.45027E+05 2.33911E+04-3.39963E+04 1.92778E-10 3.41870E-11
 -1       315 2.19427E+04-3.48408E+05 2.30256E+04-3.24461E+04-2.47209E-10-1.45836E-11
 -1       316 2.14807E+04-3.52282E+05 2.25966E+04-3.00544E+04 5.15926E-11 7.10996E-11
 -1       317 2.08090E+04-3.56715E+05 2.20890E+04-2.67201E+04-2.94039E-10-1.18682E-10
 -1       318 1.99206E+04-3.61772E+05 2.14898E+04-2.23350E+04 1.64615E-10 7.03332E-12
 -1       319 1.88112E+04-3.67506E+05 2.07883E+04-1.67879E+04-4.70213E-10-1.00558E-10
 -1       320 1.74799E+04-3.73950E+05 1.99768E+04-9.97073E+03 3.39313E-10 1.76675E-11
 -1       321 1.59274E+04-3.81101E+05 1.90526E+04-1.78698E+03-2.14825E-11 8.85661E-11
 -1       322 1.41500E+04-3.88892E+05 1.80189E+04 7.83665E+03 1.76467E-10 1.96015E-11
 -1       323 1.21270E+04-3.97152E+05 1.68873E+04 1.89352E+04-8.51719E-10-2.46097E-10
 -1       324 9.79474E+03-4.05545E+05 1.56803E+04 3.14874E+04-1.84746E-10-7.65092E-11
 -1       325 6.99515E+03-4.13461E+05 1.44343E+04 4.53983E+04-1.38192E-10 1.32622E-10
 -1       326 3.37984E+03-4.19849E+05 1.32018E+04 6.04917E+04 5.44853E-10-6.14381E-11
 -1       327-1.77411E+03-4.22944E+05 1.20530E+04 7.65401E+04-7.83048E-11 8.10079E-11
 -1       328-9.91652E+03-4.19792E+05 1.10720E+04 9.34007E+04 1.29174E-09 7.43166E-11
 -1       329-2.40121E+04-4.05349E+05 1.03412E+04 1.11530E+05-4.38753E-11-5.03090E-12
 -1       330-4.85636E+04-3.70829E+05 1.00458E+04 1.33565E+05-1.51893E-10-1.29440E-10
 -1       331-6.31751E+04-3.37836E+05 9.68249E+03 1.46735E+05 7.00883E-10 3.18921E-10
 -1       401 1.79062E+03-3.17067E+05 2.40440E+04-4.00332E+03 1.95932E-11-6.63630E-11
 -1       402 2.89305E+03-3.17130E+05 2.09337E+04-7.36572E+03-3.03199E-10-5.88860E-11
 -1       403 5.16732E+03-3.17588E+05 1.90186E+04-1.32782E+04 2.94034E-10 6.90409E-11
 -1       404 6.91666E+03-3.18795E+05 1.76549E+04-1.78616E+04-5.90674E-10-7.50229E-11
 -1       405 8.28531E+03-3.20391E+05 1.66652E+04-2.16457E+04 5.97813E-11-1.29740E-10
 -1       406 9.27728E+03-3.22214E+05 1.59133E+04-2.48663E+04-1.32660E-10-1.09792E-11
 -1       407 9.94700E+03-3.24187E+05 1.53125E+04-2.76119E+04-3.35873E-10-7.03063E-11
 -1       408 1.03485E+04-3.26289E+05 1.48046E+04-2.99174E+04 4.43934E-10 4.65022E-11
 -1       409 1.05256E+04-3.28533E+05 1.43491E+04-3.17870E+04-1.73216E-10-1.11708E-10
 -1       410 1.05111E+04-3.30956E+05 1.39161E+04-3.32054E+04 3.98036E-11 1.00518E-11
 -1       411 1.03288E+04-3.33608E+05 1.34827E+04-3.41426E+04-2.74484E-10-6.68207E-11
 -1       412 9.99524E+03-3.36548E+05 1.30305E+04-3.45566E+04 5.12203E-10 1.17986E-10
 -1       413 9.52152E+03-3.39844E+05 1.25442E+04-3.43938E+04-1.02605E-10-8.47148E-11
 -1       414 8.91523E+03-3.43567E+05 1.20104E+04-3.35903E+04-7.72037E-11-4.19534E-11
 -1       415 8.18175E+03-3.47791E+05 1.14172E+04-3.20716E+04 4.52329E-10 1.53833E-10
 -1       416 7.32549E+03-3.52593E+05 1.07542E+04-2.97542E+04-4.65323E-10-1.41238E-10
 -1       417 6.35062E+03-3.58047E+05 1.00121E+04-2.65459E+04 4.06397E-10 1.18349E-10
 -1       418 5.26123E+03-3.64223E+05 9.18306E+03-2.23482E+04-5.73327E-10-8.77328E-11
 -1       419 4.06035E+03-3.71176E+05 8.26104E+03-1.70582E+04 3.32854E-10 6.68784E-11
 -1       420 2.74736E+03-3.78942E+05 7.24216E+03-1.05723E+04 4.71153E-10 1.23928E-10
 -1       421 1.31251E+03-3.87518E+05 6.12527E+03-2.79046E+03 2.06512E-10-5.37239E-11
 -1       422-2.73207E+02-3.96844E+05 4.91260E+03 6.37935E+03-1.13978E-10 4.02864E-11
 -1       423-2.07576E+03-4.06765E+05 3.61023E+03 1.70168E+04 1.24106E-11 9.43494E-11
 -1       424-4.22808E+03-4.16985E+05 2.22838E+03 2.91886E+04 3.98327E-10-4.27899E-11
 -1       425-6.97948E+03-4.26989E+05 7.80983E+02 4.29573E+04-3.23853E-11 3.53149E-11
 -1       426-1.07756E+04-4.35942E+05-7.16217E+02 5.84127E+04-9.63671E-10-4.77320E-11
 -1       427-1.63821E+04-4.42535E+05-2.24997E+03 7.57569E+04 5.94673E-10-4.66243E-11
 -1       428-2.50652E+04-4.44781E+05-3.81811E+03 9.55077E+04-2.38124E-10 6.85312E-11
 -1       429-3.87075E+04-4.39819E+05-5.43700E+03 1.18953E+05 6.84630E-10-9.54593E-11
 -1       430-5.97836E+04-4.24211E+05-7.18323E+03 1.49129E+05 8.01301E-10-1.19693E-10
 -1       431-7.36371E+04-4.22599E+05-1.02922E+04 1.68282E+05-1.23570E-09 1.34819E-10
 -1       501 7.09274E+02-3.06454E+05 9.26886E+03-3.91260E+03-1.43622E-09-4.20377E-10
 -1       502 9.12204E+02-3.08392E+05 7.95761E+03-7.24431E+03 5.16661E-10 2.20213E-10
 -1       503 1.53568E+03-3.10096E+05 7.10864E+03-1.31736E+04-1.71110E-10 3.45251E-11
 -1       504 1.89411E+03-3.11973E+05 6.44716E+03-1.77342E+04 6.88141E-10 6.05046E-11
 -1       505 2.07518E+03-3.14064E+05 5.89607E+03-2.14171E+04-5.65028E-10-2.39661E-11
 -1       506 2.08720E+03-3.16316E+05 5.41046E+03-2.44859E+04 1.04002E-10 8.49924E-11
 -1       507 1.92077E+03-3.18708E+05 4.95528E+03-2.70690E+04-2.37046E-10-2.10509E-11
 -1       508 1.58154E+03-3.21243E+05 4.50505E+03-2.92200E+04 1.78518E-10-8.16783E-11
 -1       509 1.08283E+03-3.23950E+05 4.04076E+03-3.09532E+04-5.73176E-11 9.90817E-11
 -1       510 4.40444E+02-3.26874E+05 3.54777E+03-3.22589E+04 6.10073E-11 8.41423E-11
 -1       511-3.29760E+02-3.30072E+05 3.01440E+03-3.31110E+04-1.01390E-10-1.27316E-11
 -1       512-1.21287E+03-3.33612E+05 2.43095E+03-3.34710E+04 1.30964E-10-1.05810E-11
 -1       513-2.19497E+03-3.37564E+05 1.78912E+03-3.32896E+04 3.20378E-10 5.96477E-11
 -1       514-3.26290E+03-3.42009E+05 1.08164E+03-3.25077E+04-2.40164E-10-4.78262E-11
 -1       515-4.40390E+03-3.47028E+05 3.02051E+02-3.10571E+04 1.57260E-10 7.62586E-11
 -1       516-5.60549E+03-3.52701E+05-5.55350E+02-2.88609E+04-5.41768E-11-3.17898E-11
 -1       517-6.85572E+03-3.59111E+05-1.49545E+03-2.58338E+04 3.76401E-11 6.18230E-11
 -1       518-8.14414E+03-3.66332E+05-2.52225E+03-2.18830E+04 4.97055E-11-6.91070E-11
 -1       519-9.46402E+03-3.74428E+05-3.63873E+03-1.69092E+04 2.07807E-10 4.99782E-11
 -1       520-1.08163E+04-3.83442E+05-4.84669E+03-1.08066E+04-1.59141E-10-1.43455E-11
 -1       521-1.22164E+04-3.93384E+05-6.14662E+03-3.46386E+03 3.54856E-11 4.48970E-11
 -1       522-1.37050E+04-4.04216E+05-7.53780E+03 5.23747E+03-5.39079E-11-3.96813E-11
 -1       523-1.53646E+04-4.15822E+05-9.01858E+03 1.54269E+04-5.20335E-11 5.47993E-11
 -1       524-1.73452E+04-4.27979E+05-1.05872E+04 2.72555E+04 4.62555E-10-6.80610E-11
 -1       525-1.99002E+04-4.40309E+05-1.22434E+04 4.09188E+04 4.61346E-10 1.31706E-10
 -1       526-2.34357E+04-4.52228E+05-1.39913E+04 5.67031E+04 7.48575E-10 4.53299E-11
 -1       527-2.85698E+04-4.62883E+05-1.58445E+04 7.50740E+04-8.29410E-10-1.30666E-10
 -1       528-3.61792E+04-4.71122E+05-1.78330E+04 9.68381E+04 6.46441E-10 1.29403E-10
 -1       529-4.73886E+04-4.75576E+05-2.00161E+04 1.23418E+05 4.81404E-10 4.21502E-11
 -1       530-6.33644E+04-4.75010E+05-2.25006E+04 1.57223E+05-6.86364E-10-3.74608E-11
 -1       531-7.47682E+04-4.91951E+05-2.67379E+04 1.79105E+05-2.59608E-10 1.43971E-10
 -1       601-3.40237E+02-2.96315E+05-5.12851E+03-3.68794E+03-4.88838E-11-1.07273E-11
 -1       602-9.11138E+02-2.99671E+05-4.69940E+03-6.88090E+03-7.28398E-11 5.13413E-11
 -1       603-1.75746E+03-3.02531E+05-4.50725E+03-1.25890E+04 1.32584E-10-5.76609E-11
 -1       604-2.61871E+03-3.05206E+05-4.47559E+03-1.70247E+04 3.77421E-10 1.91854E-10
 -1       605-3.48886E+03-3.07866E+05-4.56875E+03-2.05782E+04 1.08618E-10-1.01852E-11
 -1       606-4.39135E+03-3.10585E+05-4.76355E+03-2.34959E+04 5.40848E-10-3.37688E-11
 -1       607-5.35433E+03-3.13405E+05-5.04656E+03-2.59167E+04 1.63714E-10 9.68805E-11
 -1       608-6.39810E+03-3.16366E+05-5.41134E+03-2.79101E+04-5.84866E-10-1.61524E-10
 -1       609-7.53097E+03-3.19516E+05-5.85523E+03-2.95017E+04 2.15904E-10 1.70854E-11
 -1       610-8.75215E+03-3.22913E+05-6.37758E+03-3.06903E+04-1.25002E-10 3.47600E-11
 -1       611-1.00548E+04-3.26624E+05-6.97894E+03-3.14564E+04 4.54299E-10 7.96944E-11
 -1       612-1.14282E+04-3.30722E+05-7.66052E+03-3.17667E+04-1.83958E-10 4.54572E-11
 -1       613-1.28591E+04-3.35286E+05-8.42388E+03-3.15775E+04 3.06872E-12-2.87215E-12
 -1       614-1.43321E+04-3.40402E+05-9.27077E+03-3.08351E+04-1.41662E-11 2.32304E-11
 -1       615-1.58309E+04-3.46155E+05-1.02029E+04-2.94773E+04 1.88861E-11-5.65343E-11
 -1       616-1.73382E+04-3.52635E+05-1.12220E+04-2.74328E+04-1.21506E-10 9.43195E-11
 -1       617-1.88370E+04-3.59929E+05-1.23294E+04-2.46218E+04 2.21887E-10 2.25414E-11
 -1       618-2.03121E+04-3.68122E+05-1.35262E+04-2.09554E+04-4.73263E-11 7.10722E-11
 -1       619-2.17529E+04-3.77287E+05-1.48130E+04-1.63347E+04-1.39243E-10-1.33296E-10
 -1       620-2.31569E+04-3.87483E+05-1.61900E+04-1.06496E+04-1.98467E-10-1.21926E-10
 -1       621-2.45367E+04-3.98742E+05-1.76573E+04-3.77619E+03-5.17314E-11 3.31413E-11
 -1       622-2.59285E+04-4.11060E+05-1.92149E+04 4.42879E+03 1.02589E-10-4.60990E-11
 -1       623-2.74055E+04-4.24378E+05-2.08634E+04 1.41364E+04-4.04027E-11 5.06519E-11
 -1       624-2.90946E+04-4.38564E+05-2.26052E+04 2.55613E+04 1.90285E-10-8.61137E-11
 -1       625-3.11977E+04-4.53391E+05-2.44461E+04 3.89883E+04-6.56314E-10-5.55764E-11
 -1       626-3.40156E+04-4.68519E+05-2.63980E+04 5.48154E+04 5.17221E-10-5.26259E-12
 -1       627-3.79652E+04-4.83482E+05-2.84824E+04 7.36235E+04-4.92303E-10-1.96729E-11
 -1       628-4.35766E+04-4.97731E+05-3.07361E+04 9.62782E+04-5.24568E-10-2.50726E-11
 -1       629-5.14364E+04-5.10739E+05-3.32181E+04 1.24062E+05-9.30547E-10-2.80167E-11
 -1       630-6.20410E+04-5.22284E+05-3.60209E+04 1.58816E+05-1.82634E-10 1.30269E-10
 -1       631-7.06906E+04-5.51454E+05-4.06515E+04 1.81328E+05-1.49548E-09-1.36928E-10
 -1       701-1.31335E+03-2.86823E+05-1.88122E+04-3.39177E+03 5.58222E-10 3.31596E-11
 -1       702-2.58027E+03-2.91310E+05-1.67547E+04-6.36063E+03-2.35892E-10-6.20933E-11
 -1       703-4.75323E+03-2.95180E+05-1.55781E+04-1.16921E+04-6.60156E-10-8.57037E-11
 -1       704-6.68976E+03-2.98633E+05-1.48820E+04-1.58773E+04-4.47705E-10-1.07231E-10
 -1       705-8.48227E+03-3.01893E+05-1.45263E+04-1.92342E+04 1.23821E-10-4.02978E-11
 -1       706-1.01957E+04-3.05102E+05-1.44245E+04-2.19718E+04 3.51766E-10 7.60383E-11
 -1       707-1.18789E+04-3.08357E+05-1.45218E+04-2.42202E+04-5.90086E-11 9.59784E-12
 -1       708-1.35664E+04-3.11735E+05-1.47829E+04-2.60524E+04-2.31129E-10-6.91537E-11
 -1       709-1.52793E+04-3.15307E+05-1.51850E+04-2.75015E+04-5.83000E-11-1.14162E-11
 -1       710-1.70272E+04-3.19148E+05-1.57130E+04-2.85739E+04 3.71882E-11 5.17368E-11
 -1       711-1.88104E+04-3.23332E+05-1.63569E+04-2.92568E+04-2.28540E-10-4.38895E-11
 -1       712-2.06224E+04-3.27944E+05-1.71097E+04-2.95234E+04-1.11743E-10-6.10056E-11
 -1       713-2.24517E+04-3.33067E+05-1.79668E+04-2.93358E+04-1.80171E-10-2.92719E-11
 -1       714-2.42827E+04-3.38794E+05-1.89249E+04-2.86465E+04-1.43976E-10-1.12853E-10
 -1       715-2.60970E+04-3.45218E+05-1.99815E+04-2.73989E+04-6.71613E-11 1.20791E-10
 -1       716-2.78741E+04-3.52435E+05-2.11346E+04-2.55275E+04 2.58098E-10-4.78805E-11
 -1       717-2.95929E+04-3.60540E+05-2.23828E+04-2.29571E+04-1.40331E-10-1.11005E-10
 -1       718-3.12334E+04-3.69629E+05-2.37245E+04-1.96021E+04-8.16905E-11-2.47461E-11
 -1       719-3.27786E+04-3.79790E+05-2.51585E+04-1.53643E+04 3.44781E-10 5.60713E-11
 -1       720-3.42185E+04-3.91101E+05-2.66835E+04-1.01305E+04 3.33721E-11 5.24429E-12
 -1       721-3.55544E+04-4.03623E+05-2.82985E+04-3.76723E+03 3.41626E-10 3.78469E-11
 -1       722-3.68056E+04-4.17395E+05-3.00032E+04 3.88555E+03-6.96795E-11-6.91442E-12
 -1       723-3.80174E+04-4.32424E+05-3.17986E+04 1.30255E+04 3.29353E-10-6.79818E-11
 -1       724-3.92705E+04-4.48672E+05-3.36875E+04 2.39042E+04-3.74172E-11 1.86794E-12
 -1       725-4.06908E+04-4.66057E+05-3.56766E+04 3.68507E+04-2.95830E-10-2.24866E-11
 -1       726-4.24560E+04-4.84448E+05-3.77775E+04 5.23060E+04-1.35950E-10 3.74966E-11
 -1       727-4.47943E+04-5.03680E+05-4.00096E+04 7.08694E+04 2.57065E-10 7.50352E-11
 -1       728-4.79640E+04-5.23600E+05-4.24031E+04 9.33555E+04 1.78748E-10-1.08140E-10
 -1       729-5.22024E+04-5.44161E+05-4.50024E+04 1.20852E+05 1.12788E-10 1.51715E-10
 -1       730-5.76299E+04-5.65591E+05-4.78708E+04 1.54756E+05-3.02978E-12-4.46157E-11
 -1       731-6.35748E+04-6.03556E+05-5.25329E+04 1.76684E+05-2.85904E-10 1.49007E-10
 -1       801-2.19838E+03-2.78130E+05-3.15030E+04-3.04410E+03 5.91042E-10 5.41898E-11
 -1       802-4.08478E+03-2.83538E+05-2.79625E+04-5.73266E+03-2.13539E-09-4.09786E-10
 -1       803-7.44462E+03-2.88272E+05-2.58795E+04-1.05738E+04 5.19868E-10 1.26980E-10
 -1       804-1.03293E+04-2.92431E+05-2.45652E+04-1.44077E+04-2.29393E-10-3.92740E-11
 -1       805-1.29256E+04-2.96267E+05-2.37854E+04-1.74944E+04 4.47878E-10 1.54128E-10
 -1       806-1.53451E+04-2.99960E+05-2.33964E+04-2.00076E+04-5.77845E-10-1.23951E-10
 -1       807-1.76595E+04-3.03643E+05-2.33066E+04-2.20603E+04 2.74226E-10-7.88942E-12
 -1       808-1.99163E+04-3.07423E+05-2.34555E+04-2.37207E+04 1.70272E-10 4.78728E-11
 -1       809-2.21451E+04-3.11393E+05-2.38024E+04-2.50237E+04 4.81182E-10 1.39751E-10
 -1       810-2.43622E+04-3.15642E+05-2.43192E+04-2.59802E+04 3.31966E-10-3.00034E-12
 -1       811-2.65728E+04-3.20260E+05-2.49862E+04-2.65831E+04-2.47078E-10-8.47800E-12
 -1       812-2.87736E+04-3.25335E+05-2.57891E+04-2.68116E+04 7.06002E-10 1.46503E-10
 -1       813-3.09547E+04-3.30962E+05-2.67174E+04-2.66339E+04-3.14440E-10-5.44170E-11
 -1       814-3.31004E+04-3.37239E+05-2.77632E+04-2.60085E+04-3.13038E-10-1.44630E-11
 -1       815-3.51908E+04-3.44265E+05-2.89204E+04-2.48848E+04 2.63253E-10 9.31199E-11
 -1       816-3.72029E+04-3.52146E+05-3.01838E+04-2.32032E+04 8.80508E-11 7.86394E-11
 -1       817-3.91112E+04-3.60986E+05-3.15493E+04-2.08936E+04-3.49843E-10-8.25946E-11
 -1       818-4.08897E+04-3.70892E+05-3.30132E+04-1.78745E+04 4.49219E-10 1.75797E-11
 -1       819-4.25133E+04-3.81970E+05-3.45723E+04-1.40505E+04 3.31333E-10 1.17428E-10
 -1       820-4.39603E+04-3.94321E+05-3.62236E+04-9.30814E+03-3.94381E-10-1.75758E-10
 -1       821-4.52151E+04-4.08038E+05-3.79647E+04-3.51122E+03 1.32571E-10 3.66038E-11
 -1       822-4.62720E+04-4.23207E+05-3.97941E+04 3.50699E+03-2.14085E-10 4.60558E-12
 -1       823-4.71391E+04-4.39897E+05-4.17113E+04 1.19541E+04-1.99925E-10-1.16687E-10
 -1       824-4.78420E+04-4.58164E+05-4.37174E+04 2.20929E+04-5.19664E-11 3.39743E-11
 -1       825-4.84253E+04-4.78051E+05-4.58164E+04 3.42608E+04 6.40449E-10 6.81927E-11
 -1       826-4.89513E+04-4.99596E+05-4.80156E+04 4.88939E+04-2.62351E-10-8.59113E-11
 -1       827-4.94905E+04-5.22852E+05-5.03273E+04 6.65562E+04-1.09953E-10 1.28699E-10
 -1       828-5.01005E+04-5.47928E+05-5.27699E+04 8.79686E+04 7.59859E-11-8.42011E-11
 -1       829-5.07882E+04-5.75050E+05-5.53695E+04 1.14032E+05-4.98015E-10-5.53763E-11
 -1       830-5.14543E+04-6.04660E+05-5.81609E+04 1.45824E+05-4.77196E-10-3.17660E-13
 -1       831-5.49058E+04-6.49332E+05-6.26773E+04 1.66347E+05 2.41311E-10-1.22285E-10
 -1       901-2.98283E+03-2.70362E+05-4.29636E+04-2.65952E+03-2.82930E-10-7.67633E-11
 -1       902-5.41210E+03-2.76523E+05-3.81077E+04-5.02577E+03 1.47799E-09 3.44000E-10
 -1       903-9.81560E+03-2.81985E+05-3.52132E+04-9.29391E+03-6.45628E-10-1.97638E-10
 -1       904-1.35262E+04-2.86761E+05-3.33406E+04-1.26979E+04 6.07390E-10 9.00027E-11
 -1       905-1.68157E+04-2.91119E+05-3.21732E+04-1.54501E+04-3.64801E-10-1.02543E-10
 -1       906-1.98406E+04-2.95262E+05-3.15174E+04-1.76928E+04-1.14259E-10-6.08678E-11
 -1       907-2.26966E+04-2.99347E+05-3.12490E+04-1.95203E+04-2.31468E-10-8.54804E-11
 -1       908-2.54437E+04-3.03501E+05-3.12857E+04-2.09921E+04 3.30453E-10 1.23054E-10
 -1       909-2.81192E+04-3.07837E+05-3.15714E+04-2.21408E+04 9.97119E-11 3.23296E-12
 -1       910-3.07439E+04-3.12458E+05-3.20664E+04-2.29790E+04-2.25654E-10-1.52139E-10
 -1       911-3.33264E+04-3.17463E+05-3.27425E+04-2.35032E+04 1.73809E-10 2.88087E-11
 -1       912-3.58655E+04-3.22950E+05-3.35791E+04-2.36978E+04-2.22742E-10-5.51875E-11
 -1       913-3.83521E+04-3.29023E+05-3.45605E+04-2.35366E+04-5.42875E-10-1.55052E-10
 -1       914-4.07701E+04-3.35784E+05-3.56748E+04-2.29841E+04 3.70235E-10 9.63467E-11
 -1       915-4.30984E+04-3.43343E+05-3.69123E+04-2.19961E+04 2.07155E-10-2.61359E-11
 -1       916-4.53106E+04-3.51811E+05-3.82654E+04-2.05191E+04-3.53056E-11-1.20807E-11
 -1       917-4.73769E+04-3.61304E+05-3.97273E+04-1.84894E+04-7.84960E-11-1.22492E-11
 -1       918-4.92643E+04-3.71944E+05-4.12924E+04-1.58316E+04 1.71380E-10 4.02260E-11
 -1       919-5.09379E+04-3.83852E+05-4.29554E+04-1.24555E+04-4.01281E-10-1.74138E-10
 -1       920-5.23620E+04-3.97153E+05-4.47118E+04-8.25248E+03-1.51140E-10-2.03494E-11
 -1       921-5.35013E+04-4.11976E+05-4.65573E+04-3.09053E+03 3.57358E-11 9.24852E-13
 -1       922-5.43217E+04-4.28447E+05-4.84884E+04 3.19300E+03 3.42848E-10-9.99924E-12
 -1       923-5.47919E+04-4.46698E+05-5.05021E+04 1.08004E+04-3.23687E-10 2.32243E-11
 -1       924-5.48820E+04-4.66865E+05-5.25966E+04 1.99852E+04 4.82901E-11-6.55827E-11
 -1       925-5.45619E+04-4.89094E+05-5.47714E+04 3.10668E+04-8.26647E-10-1.80049E-10
 -1       926-5.37950E+04-5.13554E+05-5.70277E+04 4.44467E+04 8.20471E-10 1.90675E-10
 -1       927-5.25274E+04-5.40457E+05-5.93689E+04 6.06256E+04-2.44125E-10-9.67229E-11
 -1       928-5.06701E+04-5.70083E+05-6.18010E+04 8.02188E+04 4.52156E-10 6.14969E-11
 -1       929-4.80736E+04-6.02826E+05-6.43323E+04 1.03963E+05 2.42380E-10-3.01262E-11
 -1       930-4.44979E+04-6.39236E+05-6.69736E+04 1.32707E+05 4.69239E-10 9.19278E-11
 -1       931-4.57313E+04-6.89211E+05-7.12664E+04 1.51230E+05-7.28220E-11-5.63457E-11
 -1      1001-3.65823E+03-2.63625E+05-5.29932E+04-2.24808E+03-6.44486E-10-1.39543E-10
 -1      1002-6.55145E+03-2.70392E+05-4.70050E+04-4.26055E+03 1.31445E-10-2.09709E-11
 -1      1003-1.18496E+04-2.76456E+05-4.34066E+04-7.89432E+03-1.46658E-11-5.80376E-11
 -1      1004-1.62641E+04-2.81754E+05-4.10462E+04-1.08086E+04-1.56328E-10 3.61635E-11
 -1      1005-2.01399E+04-2.86565E+05-3.95371E+04-1.31740E+04 5.81968E-11-2.34823E-11
 -1      1006-2.36738E+04-2.91107E+05-3.86431E+04-1.51046E+04-4.32025E-10-2.57856E-11
 -1      1007-2.69839E+04-2.95552E+05-3.82123E+04-1.66773E+04-4.31155E-10-6.71338E-11
 -1      1008-3.01426E+04-3.00042E+05-3.81439E+04-1.79409E+04 1.51299E-10 5.59872E-12
 -1      1009-3.31939E+04-3.04704E+05-3.83682E+04-1.89240E+04-1.01485E-09-1.94375E-10
 -1      1010-3.61627E+04-3.09651E+05-3.88363E+04-1.96384E+04 3.24169E-10 9.41117E-11
 -1      1011-3.90600E+04-3.14994E+05-3.95126E+04-2.00830E+04-4.12776E-10-4.85752E-11
 -1      1012-4.18857E+04-3.20839E+05-4.03708E+04-2.02459E+04 3.97517E-10 1.42555E-10
 -1      1013-4.46309E+04-3.27295E+05-4.13910E+04-2.01062E+04 2.65085E-11-4.21097E-11
 -1      1014-4.72790E+04-3.34474E+05-4.25577E+04-1.96341E+04 5.20032E-11-2.50243E-12
 -1      1015-4.98067E+04-3.42491E+05-4.38583E+04-1.87922E+04-8.30041E-10-1.78380E-10
 -1      1016-5.21846E+04-3.51468E+05-4.52828E+04-1.75340E+04 4.47989E-10 9.86661E-11
 -1      1017-5.43780E+04-3.61529E+05-4.68224E+04-1.58036E+04-3.71201E-11 2.05552E-11
 -1      1018-5.63464E+04-3.72810E+05-4.84693E+04-1.35336E+04-3.69458E-10-8.43619E-11
 -1      1019-5.80447E+04-3.85449E+05-5.02167E+04-1.06424E+04-3.03172E-10-3.23898E-11
 -1      1020-5.94224E+04-3.99596E+05-5.20580E+04-7.03134E+03 6.61331E-11-3.65547E-12
 -1      1021-6.04240E+04-4.15407E+05-5.39872E+04-2.57934E+03-7.80334E-11-1.33615E-11
 -1      1022-6.09878E+04-4.33051E+05-5.59982E+04 2.86262E+03 5.78500E-10 2.61444E-11
 -1      1023-6.10448E+04-4.52712E+05-5.80854E+04 9.47903E+03-4.90660E-10-1.17870E-10
 -1      1024-6.05156E+04-4.74591E+05-6.02432E+04 1.74988E+04 3.69872E-10 5.78584E-11
 -1      1025-5.93058E+04-4.98919E+05-6.24663E+04 2.72055E+04-1.23162E-10-6.95320E-11
 -1      1026-5.72990E+04-5.25964E+05-6.47494E+04 3.89481E+04 8.67404E-11 5.63688E-11
 -1      1027-5.43458E+04-5.56049E+05-6.70873E+04 5.31516E+04-4.49901E-10-1.51439E-10
 -1      1028-5.02501E+04-5.89573E+05-6.94741E+04 7.03243E+04-5.69017E-10-3.03568E-11
 -1      1029-4.47521E+04-6.27035E+05-7.19036E+04 9.10603E+04 6.51658E-10 1.62359E-10
 -1      1030-3.75119E+04-6.69060E+05-7.43672E+04 1.16032E+05 1.32103E-10 4.16491E-11
 -1      1031-3.68339E+04-7.23288E+05-7.84156E+04 1.32105E+05 7.04193E-10 9.32966E-11
 -1      1101-4.21817E+03-2.58004E+05-6.14244E+04-1.81739E+03 5.13838E-10 4.41225E-12
 -1      1102-7.49419E+03-2.65249E+05-5.44981E+04-3.45246E+03 8.81544E-10 1.40894E-10
 -1      1103-1.35324E+04-2.71796E+05-5.03128E+04-6.40654E+03-4.31265E-10-7.58792E-11
 -1      1104-1.85271E+04-2.77518E+05-4.75431E+04-8.78598E+03 4.81551E-10 7.01877E-11
 -1      1105-2.28834E+04-2.82706E+05-4.57456E+04-1.07234E+04 7.73181E-10 1.33049E-10
 -1      1106-2.68323E+04-2.87583E+05-4.46486E+04-1.23078E+04 7.84936E-10 1.17847E-10
 -1      1107-3.05115E+04-2.92333E+05-4.40776E+04-1.35989E+04-1.87990E-10-3.09874E-11
 -1      1108-3.40044E+04-2.97111E+05-4.39163E+04-1.46354E+04-1.56391E-10-7.47888E-11
 -1      1109-3.73612E+04-3.02050E+05-4.40844E+04-1.54403E+04 1.58387E-10 1.54681E-11
 -1      1110-4.06105E+04-3.07274E+05-4.45248E+04-1.60238E+04 4.29864E-10 1.02913E-10
 -1      1111-4.37647E+04-3.12901E+05-4.51961E+04-1.63860E+04 5.69201E-11 1.82038E-11
 -1      1112-4.68246E+04-3.19045E+05-4.60675E+04-1.65178E+04-1.96041E-10-1.26722E-10
 -1      1113-4.97810E+04-3.25821E+05-4.71153E+04-1.64030E+04 5.36678E-10 1.34554E-10
 -1      1114-5.26164E+04-3.33348E+05-4.83211E+04-1.60177E+04 3.99822E-10 9.74437E-11
 -1      1115-5.53055E+04-3.41747E+05-4.96701E+04-1.53313E+04-2.16944E-10-6.05671E-11
 -1      1116-5.78157E+04-3.51147E+05-5.11500E+04-1.43055E+04 1.56126E-10 2.37363E-12
 -1      1117-6.01070E+04-3.61686E+05-5.27502E+04-1.28932E+04 8.22019E-11 5.94443E-12
 -1      1118-6.21322E+04-3.73506E+05-5.44614E+04-1.10374E+04 4.84937E-11-2.16154E-11
 -1      1119-6.38359E+04-3.86766E+05-5.62750E+04-8.66876E+03-2.96346E-11 2.39726E-11
 -1      1120-6.51542E+04-4.01634E+05-5.81826E+04-5.70250E+03 2.87847E-10 9.97028E-11
 -1      1121-6.60125E+04-4.18293E+05-6.01763E+04-2.03475E+03 9.60545E-11 3.32122E-11
 -1      1122-6.63247E+04-4.36946E+05-6.22479E+04 2.46217E+03-2.30982E-11-6.75807E-11
 -1      1123-6.59889E+04-4.57820E+05-6.43887E+04 7.94550E+03 5.24355E-10 1.38034E-10
 -1      1124-6.48843E+04-4.81170E+05-6.65896E+04 1.46085E+04-7.24882E-10-6.41144E-11
 -1      1125-6.28649E+04-5.07289E+05-6.88407E+04 2.26876E+04 4.21007E-10 7.80389E-11
 -1      1126-5.97522E+04-5.36520E+05-7.11308E+04 3.24692E+04-3.47087E-10-5.09953E-11
 -1      1127-5.53251E+04-5.69266E+05-7.34469E+04 4.42963E+04 2.55950E-10 3.45193E-11
 -1      1128-4.93093E+04-6.06008E+05-7.57736E+04 5.85729E+04 2.45739E-10 1.14685E-11
 -1      1129-4.13648E+04-6.47319E+05-7.80925E+04 7.57648E+04-1.82774E-10-1.05693E-11
 -1      1130-3.10757E+04-6.93879E+05-8.03807E+04 9.63972E+04-3.89500E-10-9.31317E-11
 -1      1131-2.88110E+04-7.51492E+05-8.41984E+04 1.09666E+05 5.49115E-10 5.69379E-11
 -1      1201-4.65797E+03-2.53566E+05-6.81215E+04-1.37323E+03-8.39974E-10-1.60093E-11
 -1      1202-8.23371E+03-2.61172E+05-6.04588E+04-2.61351E+03-4.80231E-10-7.49051E-11
 -1      1203-1.48526E+04-2.68088E+05-5.58106E+04-4.85507E+03 8.42463E-10 1.31827E-10
 -1      1204-2.03015E+04-2.74139E+05-5.27167E+04-6.66641E+03-1.84808E-10-2.60674E-11
 -1      1205-2.50325E+04-2.79621E+05-5.06894E+04-8.14500E+03-4.70736E-10-5.40361E-11
 -1      1206-2.93038E+04-2.84764E+05-4.94297E+04-9.35611E+03 1.34714E-10-1.56786E-11
 -1      1207-3.32687E+04-2.89759E+05-4.87453E+04-1.03437E+04 1.87518E-10 6.84492E-11
 -1      1208-3.70200E+04-2.94766E+05-4.85078E+04-1.11365E+04-5.26368E-11-7.43583E-11
 -1      1209-4.06131E+04-2.99927E+05-4.86284E+04-1.17516E+04 1.38575E-10 2.26100E-11
 -1      1210-4.40794E+04-3.05373E+05-4.90439E+04-1.21970E+04 3.72317E-10 8.70260E-12
 -1      1211-4.74327E+04-3.11226E+05-4.97082E+04-1.24729E+04 1.75394E-10 4.22052E-11
 -1      1212-5.06742E+04-3.17607E+05-5.05870E+04-1.25732E+04-7.14695E-10-8.39715E-11
 -1      1213-5.37944E+04-3.24637E+05-5.16538E+04-1.24855E+04 1.53253E-10-8.14422E-12
 -1      1214-5.67747E+04-3.32438E+05-5.28878E+04-1.21921E+04-1.19322E-10-2.47801E-11
 -1      1215-5.95878E+04-3.41139E+05-5.42723E+04-1.16695E+04-1.38169E-11-4.18389E-11
 -1      1216-6.21981E+04-3.50875E+05-5.57933E+04-1.08880E+04-4.58370E-10-4.24385E-11
 -1      1217-6.45612E+04-3.61792E+05-5.74389E+04-9.81125E+03 1.51057E-10 7.55751E-12
 -1      1218-6.66235E+04-3.74044E+05-5.91983E+04-8.39448E+03 4.67421E-10 1.59332E-10
 -1      1219-6.83211E+04-3.87801E+05-6.10613E+04-6.58309E+03-1.37509E-10-4.83600E-11
 -1      1220-6.95781E+04-4.03249E+05-6.30183E+04-4.31025E+03 1.12185E-11-7.32287E-11
 -1      1221-7.03047E+04-4.20592E+05-6.50595E+04-1.49398E+03 1.63106E-10 2.55355E-11
 -1      1222-7.03938E+04-4.40062E+05-6.71747E+04 1.96622E+03-5.43132E-10-1.66425E-10
 -1      1223-6.97180E+04-4.61916E+05-6.93527E+04 6.19348E+03 1.89952E-10 3.34871E-11
 -1      1224-6.81239E+04-4.86451E+05-7.15814E+04 1.13380E+04-2.55783E-10 7.78065E-11
 -1      1225-6.54262E+04-5.14007E+05-7.38469E+04 1.75819E+04-8.86224E-11-4.77516E-11
 -1      1226-6.14004E+04-5.44979E+05-7.61330E+04 2.51433E+04-4.07335E-10-1.58383E-11
 -1      1227-5.57737E+04-5.79827E+05-7.84206E+04 3.42808E+04 7.97225E-10 9.67699E-11
 -1      1228-4.82153E+04-6.19088E+05-8.06869E+04 4.52960E+04-4.54759E-10-7.00324E-11
 -1      1229-3.83268E+04-6.63390E+05-8.29044E+04 5.85349E+04-4.22685E-10-4.67243E-11
 -1      1230-2.56335E+04-7.13459E+05-8.50394E+04 7.43882E+04-2.59483E-10-1.49504E-11
 -1      1231-2.21198E+04-7.73670E+05-8.86611E+04 8.45778E+04 1.46804E-10 6.14862E-11
 -1      1301-4.97430E+03-2.50361E+05-7.29796E+04-9.20041E+02 3.96569E-10 1.06653E-10
 -1      1302-8.76518E+03-2.58219E+05-6.47877E+04-1.75332E+03 1.46577E-11-4.49435E-11
 -1      1303-1.58015E+04-2.65396E+05-5.98055E+04-3.25959E+03-3.96916E-11 1.97190E-11
 -1      1304-2.15765E+04-2.71681E+05-5.64770E+04-4.47945E+03-1.64211E-10-3.32000E-12
 -1      1305-2.65758E+04-2.77373E+05-5.42828E+04-5.47702E+03-4.33397E-10-1.90940E-11
 -1      1306-3.10773E+04-2.82709E+05-5.29043E+04-6.29514E+03 3.88225E-10 1.20372E-11
 -1      1307-3.52458E+04-2.87881E+05-5.21366E+04-6.96271E+03 4.26368E-10 6.97295E-11
 -1      1308-3.91809E+04-2.93056E+05-5.18426E+04-7.49865E+03 1.66433E-10 4.82680E-11
 -1      1309-4.29421E+04-2.98379E+05-5.19273E+04-7.91437E+03 2.06667E-10 1.15849E-11
 -1      1310-4.65626E+04-3.03986E+05-5.23232E+04-8.21521E+03-4.20491E-10-3.97183E-11
 -1      1311-5.00576E+04-3.10004E+05-5.29810E+04-8.40149E+03-4.91528E-10-3.85225E-11
 -1      1312-5.34285E+04-3.16557E+05-5.38635E+04-8.46913E+03 2.88701E-10-7.33103E-12
 -1      1313-5.66653E+04-3.23769E+05-5.49425E+04-8.41005E+03-6.45176E-10-8.40144E-11
 -1      1314-5.97484E+04-3.31769E+05-5.61954E+04-8.21230E+03-1.57703E-10-2.22906E-11
 -1      1315-6.26490E+04-3.40688E+05-5.76041E+04-7.85998E+03 2.47242E-10 6.06201E-11
 -1      1316-6.53290E+04-3.50668E+05-5.91536E+04-7.33300E+03-8.81868E-11 2.52089E-12
 -1      1317-6.77407E+04-3.61860E+05-6.08306E+04-6.60633E+03 4.01533E-11-2.00092E-11
 -1      1318-6.98253E+04-3.74426E+05-6.26232E+04-5.64929E+03-3.15145E-10-3.97056E-11
 -1      1319-7.15125E+04-3.88547E+05-6.45205E+04-4.42420E+03 2.88721E-10 2.01279E-11
 -1      1320-7.27173E+04-4.04420E+05-6.65115E+04-2.88497E+03-1.88414E-10 2.56472E-11
 -1      1321-7.33381E+04-4.22266E+05-6.85851E+04-9.75034E+02-2.49858E-10-1.00527E-10
 -1      1322-7.32531E+04-4.42335E+05-7.07294E+04 1.37475E+03-8.28220E-11 1.01700E-10
 -1      1323-7.23158E+04-4.64909E+05-7.29315E+04 4.24882E+03 1.82443E-10-2.89187E-11
 -1      1324-7.03499E+04-4.90312E+05-7.51768E+04 7.74960E+03 1.58357E-10-4.44732E-12
 -1      1325-6.71427E+04-5.18917E+05-7.74484E+04 1.20004E+04-2.77656E-10 3.75030E-12
 -1      1326-6.24381E+04-5.51152E+05-7.97266E+04 1.71482E+04 2.49768E-10-3.24080E-11
 -1      1327-5.59280E+04-5.87518E+05-8.19878E+04 2.33658E+04 1.99189E-10-6.97349E-12
 -1      1328-4.72434E+04-6.28588E+05-8.42040E+04 3.08538E+04-8.54158E-12 1.18696E-11
 -1      1329-3.59455E+04-6.75028E+05-8.63412E+04 3.98419E+04-1.79118E-10-1.74347E-11
 -1      1330-2.15165E+04-7.27599E+05-8.83586E+04 5.05906E+04-1.07463E-10-1.40971E-11
 -1      1331-1.71023E+04-7.89656E+05-9.18322E+04 5.74967E+04 3.57286E-10 2.23878E-10
 -1      1401-5.16494E+03-2.48425E+05-7.59241E+04-4.61329E+02-2.36660E-10 8.24923E-11
 -1      1402-9.08533E+03-2.56432E+05-6.74135E+04-8.79852E+02-4.13952E-10-3.49115E-11
 -1      1403-1.63731E+04-2.63763E+05-6.22297E+04-1.63646E+03-2.62319E-10-6.82180E-11
 -1      1404-2.23445E+04-2.70188E+05-5.87591E+04-2.25000E+03-2.11048E-10 3.86947E-11
 -1      1405-2.75052E+04-2.76007E+05-5.64637E+04-2.75227E+03 2.98316E-10 2.52637E-11
 -1      1406-3.21448E+04-2.81459E+05-5.50130E+04-3.16451E+03-4.49910E-10 1.64069E-11
 -1      1407-3.64353E+04-2.86738E+05-5.41944E+04-3.50105E+03-4.76932E-10-3.07449E-11
 -1      1408-4.04804E+04-2.92015E+05-5.38656E+04-3.77127E+03-9.33760E-11 3.50625E-13
 -1      1409-4.43420E+04-2.97437E+05-5.39281E+04-3.98085E+03-9.84265E-11 3.23056E-11
 -1      1410-4.80549E+04-3.03142E+05-5.43116E+04-4.13250E+03-1.31178E-10-5.31545E-12
 -1      1411-5.16347E+04-3.09260E+05-5.49647E+04-4.22637E+03-3.41035E-10-2.10111E-11
 -1      1412-5.50829E+04-3.15917E+05-5.58490E+04-4.26047E+03-1.37552E-10 4.84263E-12
 -1      1413-5.83894E+04-3.23240E+05-5.69347E+04-4.23075E+03 3.09921E-10 1.67863E-11
 -1      1414-6.15339E+04-3.31360E+05-5.81985E+04-4.13122E+03-5.24378E-10-6.02771E-11
 -1      1415-6.44866E+04-3.40412E+05-5.96213E+04-3.95387E+03-2.12315E-11 1.04206E-11
 -1      1416-6.72077E+04-3.50540E+05-6.11874E+04-3.68851E+03-3.64862E-10-1.39862E-11
 -1      1417-6.96472E+04-3.61898E+05-6.28828E+04-3.32243E+03-5.33778E-10-3.50993E-11
 -1      1418-7.17435E+04-3.74656E+05-6.46950E+04-2.84002E+03-1.33543E-10-6.99013E-11
 -1      1419-7.34218E+04-3.88998E+05-6.66124E+04-2.22204E+03-1.35779E-10 5.53038E-11
 -1      1420-7.45917E+04-4.05130E+05-6.86232E+04-1.44502E+03-9.33827E-11-1.98476E-13
 -1      1421-7.51444E+04-4.23284E+05-7.07155E+04-4.80076E+02-2.88268E-10-1.49190E-11
 -1      1422-7.49489E+04-4.43719E+05-7.28765E+04 7.07966E+02-2.16288E-10-3.13517E-11
 -1      1423-7.38473E+04-4.66733E+05-7.50920E+04 2.16200E+03-3.24957E-11-3.46871E-11
 -1      1424-7.16496E+04-4.92665E+05-7.73460E+04 3.93390E+03-3.83807E-10-3.04390E-11
 -1      1425-6.81270E+04-5.21907E+05-7.96196E+04 6.08584E+03-8.57878E-11 3.27586E-12
 -1      1426-6.30049E+04-5.54909E+05-8.18910E+04 8.69169E+03-2.24866E-10-2.14815E-11
 -1      1427-5.59547E+04-5.92191E+05-8.41340E+04 1.18380E+04-6.46082E-10-4.45877E-11
 -1      1428-4.65851E+04-6.34350E+05-8.63174E+04 1.56249E+04 3.85630E-10 5.63488E-11
 -1      1429-3.44335E+04-6.82075E+05-8.84034E+04 2.01673E+04-2.62860E-10-3.54058E-11
 -1      1430-1.89554E+04-7.36147E+05-9.03471E+04 2.55955E+04 4.77205E-10 5.04713E-11
 -1      1431-1.39974E+04-7.99310E+05-9.37289E+04 2.90824E+04-1.84353E-10-2.26302E-11
 -1      1501-5.22862E+03-2.47777E+05-7.69106E+04-2.66515E+03 3.67033E-11-2.03146E-10
 -1      1502-9.19225E+03-2.55833E+05-6.82936E+04-2.68202E+03 2.53528E-10 1.11223E-10
 -1      1503-1.65641E+04-2.63216E+05-6.30423E+04-2.73645E+03-1.85076E-10-1.60261E-11
 -1      1504-2.26011E+04-2.69688E+05-5.95242E+04-2.81862E+03 1.76583E-09 5.33631E-11
 -1      1505-2.78156E+04-2.75549E+05-5.71949E+04-2.92261E+03-3.19934E-10-7.99988E-11
 -1      1506-3.25012E+04-2.81039E+05-5.57199E+04-3.04465E+03-6.18593E-10 3.08097E-11
 -1      1507-3.68323E+04-2.86355E+05-5.48842E+04-3.18218E+03 1.05846E-09 3.17013E-11
 -1      1508-4.09140E+04-2.91666E+05-5.45437E+04-3.33336E+03-5.87009E-10-8.43093E-12
 -1      1509-4.48091E+04-2.97121E+05-5.45986E+04-3.49675E+03 6.23671E-10-8.57369E-12
 -1      1510-4.85527E+04-3.02859E+05-5.49778E+04-3.67112E+03-7.17560E-10 6.81672E-12
 -1      1511-5.21607E+04-3.09010E+05-5.56294E+04-3.85529E+03 8.48607E-10 5.90968E-11
 -1      1512-5.56347E+04-3.15702E+05-5.65141E+04-4.04813E+03-2.06902E-10 2.74852E-11
 -1      1513-5.89643E+04-3.23063E+05-5.76020E+04-4.24838E+03-9.07495E-10-5.77617E-11
 -1      1514-6.21293E+04-3.31222E+05-5.88693E+04-4.45468E+03 2.49057E-10 5.22011E-11
 -1      1515-6.50992E+04-3.40319E+05-6.02968E+04-4.66546E+03 5.19534E-11 4.76711E-11
 -1      1516-6.78339E+04-3.50496E+05-6.18682E+04-4.87890E+03-3.55989E-10-3.55087E-11
 -1      1517-7.02825E+04-3.61910E+05-6.35697E+04-5.09281E+03 2.98891E-10 8.46636E-13
 -1      1518-7.23824E+04-3.74732E+05-6.53884E+04-5.30451E+03-2.93168E-10-5.11148E-11
 -1      1519-7.40572E+04-3.89149E+05-6.73124E+04-5.51067E+03 1.17598E-10 1.01710E-10
 -1      1520-7.52149E+04-4.05368E+05-6.93297E+04-5.70719E+03-2.34651E-10-1.33338E-10
 -1      1521-7.57441E+04-4.23625E+05-7.14282E+04-5.88883E+03 6.11019E-10 2.31126E-11
 -1      1522-7.55107E+04-4.44183E+05-7.35946E+04-6.04908E+03-4.22447E-10-2.44019E-11
 -1      1523-7.43531E+04-4.67345E+05-7.58144E+04-6.17973E+03 3.12052E-11-6.80457E-12
 -1      1524-7.20767E+04-4.93455E+05-7.80710E+04-6.27054E+03 2.54850E-10-1.52116E-11
 -1      1525-6.84474E+04-5.22911E+05-8.03450E+04-6.30891E+03 5.46739E-10 7.51863E-11
 -1      1526-6.31845E+04-5.56170E+05-8.26139E+04-6.27941E+03 4.44898E-10 1.12510E-11
 -1      1527-5.59526E+04-5.93758E+05-8.48504E+04-6.16347E+03-6.18400E-10 7.19797E-12
 -1      1528-4.63533E+04-6.36281E+05-8.70223E+04-5.93897E+03 3.08111E-10 2.18169E-11
 -1      1529-3.39156E+04-6.84434E+05-8.90909E+04-5.57993E+03 1.15335E-10-2.64700E-12
 -1      1530-1.80866E+04-7.39007E+05-9.10095E+04-5.05608E+03-7.50785E-10 8.82523E-11
 -1      1531-1.29467E+04-8.02538E+05-9.43601E+04-4.46322E+03 3.80869E-10-1.54404E-10
 -3
    1PSTEP                        15           8           1          
  100CL  108 8.00000E-01         496                     0    8           1
 -4  DISP        4    1
 -5  D1          1    2    1    0
 -5  D2          1    2    2    0
 -5  D3          1    2    3    0
 -5  ALL         1    2    0    0    1ALL
 -1         1 1.54499E-08 9.17086E-08 9.46002E-25
 -1         2 1.61007E-08 9.30068E-08 9.85852E-25
 -1         3 1.69902E-08 9.42303E-08 1.04031E-24
 -1         4 1.80593E-08 9.54013E-08 1.10577E-24
 -1         5 1.92811E-08 9.65425E-08 1.18059E-24
 -1         6 2.06433E-08 9.76799E-08 1.26400E-24
 -1         7 2.21405E-08 9.88425E-08 1.35567E-24
 -1         8 2.37709E-08 1.00061E-07 1.45550E-24
 -1         9 2.55342E-08 1.01368E-07 1.56347E-24
 -1        10 2.74311E-08 1.02798E-07 1.67962E-24
 -1        11 2.94624E-08 1.04385E-07 1.80399E-24
 -1        12 3.16288E-08 1.06167E-07 1.93664E-24
 -1        13 3.39303E-08 1.08183E-07 2.07756E-24
 -1        14 3.63658E-08 1.10474E-07 2.22669E-24
 -1        15 3.89329E-08 1.13084E-07 2.38387E-24
 -1        16 4.16270E-08 1.16060E-07 2.54883E-24
 -1        17 4.44412E-08 1.19449E-07 2.72115E-24
 -1        18 4.73650E-08 1.23302E-07 2.90017E-24
 -1        19 5.03839E-08 1.27673E-07 3.08502E-24
 -1        20 5.34782E-08 1.32612E-07 3.27449E-24
 -1        21 5.66219E-08 1.38173E-07 3.46698E-24
 -1        22 5.97814E-08 1.44403E-07 3.66043E-24
 -1        23 6.29138E-08 1.51346E-07 3.85223E-24
 -1        24 6.59660E-08 1.59030E-07 4.03912E-24
 -1        25 6.88730E-08 1.67466E-07 4.21712E-24
 -1        26 7.15580E-08 1.76634E-07 4.38152E-24
 -1        27 7.39336E-08 1.86464E-07 4.52698E-24
 -1        28 7.59071E-08 1.96811E-07 4.64781E-24
 -1        29 7.73943E-08 2.07406E-07 4.73888E-24
 -1        30 7.83493E-08 2.17789E-07 4.79735E-24
 -1        31 7.88544E-08 2.27369E-07 4.82828E-24
 -1       101 1.13068E-08 8.06883E-08 6.92319E-25
 -1       102 1.21096E-08 8.20201E-08 7.41476E-25
 -1       103 1.30358E-08 8.32346E-08 7.98186E-25
 -1       104 1.40639E-08 8.43622E-08 8.61137E-25
 -1       105 1.51770E-08 8.54357E-08 9.29291E-25
 -1       106 1.63622E-08 8.64880E-08 1.00186E-24
 -1       107 1.76104E-08 8.75522E-08 1.07829E-24
 -1       108 1.89151E-08 8.86617E-08 1.15818E-24
 -1       109 2.02712E-08 8.98509E-08 1.24121E-24
 -1       110 2.16748E-08 9.11549E-08 1.32716E-24
 -1       111 2.31223E-08 9.26107E-08 1.41578E-24
 -1       112 2.46096E-08 9.42569E-08 1.50686E-24
 -1       113 2.61327E-08 9.61342E-08 1.60011E-24
 -1       114 2.76864E-08 9.82857E-08 1.69525E-24
 -1       115 2.92650E-08 1.00757E-07 1.79191E-24
 -1       116 3.08616E-08 1.03597E-07 1.88966E-24
 -1       117 3.24680E-08 1.06858E-07 1.98803E-24
 -1       118 3.40752E-08 1.10591E-07 2.08644E-24
 -1       119 3.56729E-08 1.14855E-07 2.18426E-24
 -1       120 3.72500E-08 1.19706E-07 2.28083E-24
 -1       121 3.87948E-08 1.25202E-07 2.37542E-24
 -1       122 4.02959E-08 1.31397E-07 2.46733E-24
 -1       123 4.17424E-08 1.38342E-07 2.55590E-24
 -1       124 4.31252E-08 1.46075E-07 2.64057E-24
 -1       125 4.44384E-08 1.54623E-07 2.72098E-24
 -1       126 4.56795E-08 1.63982E-07 2.79697E-24
 -1       127 4.68492E-08 1.74116E-07 2.86859E-24
 -1       128 4.79478E-08 1.84933E-07 2.93586E-24
 -1       129 4.89623E-08 1.96266E-07 2.99797E-24
 -1       130 4.98379E-08 2.07838E-07 3.05159E-24
 -1       131 5.04714E-08 2.18941E-07 3.09038E-24
 -1       201 9.88509E-09 7.36288E-08 6.05267E-25
 -1       202 1.04964E-08 7.50098E-08 6.42697E-25
 -1       203 1.12706E-08 7.62461E-08 6.90104E-25
 -1       204 1.21501E-08 7.73731E-08 7.43953E-25
 -1       205 1.31066E-08 7.84355E-08 8.02522E-25
 -1       206 1.41238E-08 7.94705E-08 8.64807E-25
 -1       207 1.51909E-08 8.05118E-08 9.30147E-25
 -1       208 1.63003E-08 8.15919E-08 9.98072E-25
 -1       209 1.74462E-08 8.27433E-08 1.06824E-24
 -1       210 1.86243E-08 8.39987E-08 1.14037E-24
 -1       211 1.98307E-08 8.53922E-08 1.21424E-24
 -1       212 2.10619E-08 8.69591E-08 1.28963E-24
 -1       213 2.23144E-08 8.87369E-08 1.36632E-24
 -1       214 2.35845E-08 9.07648E-08 1.44409E-24
 -1       215 2.48681E-08 9.30847E-08 1.52268E-24
 -1       216 2.61608E-08 9.57408E-08 1.60183E-24
 -1       217 2.74575E-08 9.87800E-08 1.68123E-24
 -1       218 2.87530E-08 1.02252E-07 1.76056E-24
 -1       219 3.00415E-08 1.06207E-07 1.83945E-24
 -1       220 3.13171E-08 1.10700E-07 1.91755E-24
 -1       221 3.25738E-08 1.15784E-07 1.99450E-24
 -1       222 3.38059E-08 1.21513E-07 2.06994E-24
 -1       223 3.50080E-08 1.27938E-07 2.14355E-24
 -1       224 3.61754E-08 1.35108E-07 2.21503E-24
 -1       225 3.73030E-08 1.43061E-07 2.28407E-24
 -1       226 3.83843E-08 1.51828E-07 2.35028E-24
 -1       227 3.94072E-08 1.61424E-07 2.41292E-24
 -1       228 4.03443E-08 1.71853E-07 2.47029E-24
 -1       229 4.11311E-08 1.83116E-07 2.51847E-24
 -1       230 4.16128E-08 1.95247E-07 2.54796E-24
 -1       231 4.12667E-08 2.08576E-07 2.52677E-24
 -1       301 8.15982E-09 6.67270E-08 4.99628E-25
 -1       302 8.75545E-09 6.81930E-08 5.36099E-25
 -1       303 9.43700E-09 6.94328E-08 5.77830E-25
 -1       304 1.01953E-08 7.05475E-08 6.24263E-25
 -1       305 1.10124E-08 7.15883E-08 6.74291E-25
 -1       306 1.18748E-08 7.25956E-08 7.27096E-25
 -1       307 1.27729E-08 7.36041E-08 7.82090E-25
 -1       308 1.36998E-08 7.46452E-08 8.38842E-25
 -1       309 1.46500E-08 7.57496E-08 8.97024E-25
 -1       310 1.56193E-08 7.69477E-08 9.56377E-25
 -1       311 1.66043E-08 7.82710E-08 1.01669E-24
 -1       312 1.76020E-08 7.97516E-08 1.07778E-24
 -1       313 1.86096E-08 8.14236E-08 1.13947E-24
 -1       314 1.96245E-08 8.33227E-08 1.20162E-24
 -1       315 2.06442E-08 8.54869E-08 1.26405E-24
 -1       316 2.16660E-08 8.79563E-08 1.32661E-24
 -1       317 2.26873E-08 9.07736E-08 1.38915E-24
 -1       318 2.37056E-08 9.39837E-08 1.45150E-24
 -1       319 2.47181E-08 9.76338E-08 1.51350E-24
 -1       320 2.57223E-08 1.01773E-07 1.57498E-24
 -1       321 2.67156E-08 1.06453E-07 1.63580E-24
 -1       322 2.76955E-08 1.11726E-07 1.69580E-24
 -1       323 2.86589E-08 1.17643E-07 1.75480E-24
 -1       324 2.96019E-08 1.24258E-07 1.81254E-24
 -1       325 3.05179E-08 1.31622E-07 1.86862E-24
 -1       326 3.13945E-08 1.39786E-07 1.92230E-24
 -1       327 3.22085E-08 1.48802E-07 1.97214E-24
 -1       328 3.29147E-08 1.58732E-07 2.01538E-24
 -1       329 3.34256E-08 1.69671E-07 2.04666E-24
 -1       330 3.35691E-08 1.81800E-07 2.05544E-24
 -1       331 3.30609E-08 1.95508E-07 2.02433E-24
 -1       401 6.35998E-09 6.00767E-08 3.89424E-25
 -1       402 6.93367E-09 6.15575E-08 4.24551E-25
 -1       403 7.55862E-09 6.27951E-08 4.62817E-25
 -1       404 8.22331E-09 6.38875E-08 5.03516E-25
 -1       405 8.92155E-09 6.48973E-08 5.46269E-25
 -1       406 9.64626E-09 6.58678E-08 5.90644E-25
 -1       407 1.03912E-08 6.68341E-08 6.36258E-25
 -1       408 1.11513E-08 6.78270E-08 6.82797E-25
 -1       409 1.19223E-08 6.88755E-08 7.30006E-25
 -1       410 1.27008E-08 7.00079E-08 7.77676E-25
 -1       411 1.34842E-08 7.12527E-08 8.25640E-25
 -1       412 1.42700E-08 7.26396E-08 8.73756E-25
 -1       413 1.50564E-08 7.41991E-08 9.21909E-25
 -1       414 1.58418E-08 7.59638E-08 9.70000E-25
 -1       415 1.66249E-08 7.79677E-08 1.01795E-24
 -1       416 1.74046E-08 8.02473E-08 1.06569E-24
 -1       417 1.81799E-08 8.28409E-08 1.11316E-24
 -1       418 1.89502E-08 8.57896E-08 1.16033E-24
 -1       419 1.97151E-08 8.91364E-08 1.20716E-24
 -1       420 2.04741E-08 9.29272E-08 1.25364E-24
 -1       421 2.12269E-08 9.72100E-08 1.29973E-24
 -1       422 2.19727E-08 1.02035E-07 1.34540E-24
 -1       423 2.27098E-08 1.07455E-07 1.39053E-24
 -1       424 2.34345E-08 1.13525E-07 1.43490E-24
 -1       425 2.41392E-08 1.20305E-07 1.47805E-24
 -1       426 2.48094E-08 1.27859E-07 1.51909E-24
 -1       427 2.54184E-08 1.36261E-07 1.55637E-24
 -1       428 2.59194E-08 1.45608E-07 1.58705E-24
 -1       429 2.62331E-08 1.56034E-07 1.60626E-24
 -1       430 2.62351E-08 1.67747E-07 1.60638E-24
 -1       431 2.57446E-08 1.81095E-07 1.57635E-24
 -1       501 4.55635E-09 5.36794E-08 2.78987E-25
 -1       502 5.11122E-09 5.51269E-08 3.12962E-25
 -1       503 5.68494E-09 5.63355E-08 3.48091E-25
 -1       504 6.27155E-09 5.73936E-08 3.84009E-25
 -1       505 6.86801E-09 5.83627E-08 4.20530E-25
 -1       506 7.47184E-09 5.92875E-08 4.57503E-25
 -1       507 8.08021E-09 6.02031E-08 4.94754E-25
 -1       508 8.69030E-09 6.11392E-08 5.32110E-25
 -1       509 9.29952E-09 6.21233E-08 5.69413E-25
 -1       510 9.90569E-09 6.31817E-08 6.06529E-25
 -1       511 1.05070E-08 6.43404E-08 6.43346E-25
 -1       512 1.11020E-08 6.56262E-08 6.79777E-25
 -1       513 1.16896E-08 6.70668E-08 7.15760E-25
 -1       514 1.22693E-08 6.86912E-08 7.51253E-25
 -1       515 1.28407E-08 7.05301E-08 7.86241E-25
 -1       516 1.34040E-08 7.26163E-08 8.20728E-25
 -1       517 1.39595E-08 7.49843E-08 8.54743E-25
 -1       518 1.45081E-08 7.76713E-08 8.88335E-25
 -1       519 1.50509E-08 8.07166E-08 9.21569E-25
 -1       520 1.55890E-08 8.41623E-08 9.54521E-25
 -1       521 1.61238E-08 8.80534E-08 9.87265E-25
 -1       522 1.66559E-08 9.24381E-08 1.01984E-24
 -1       523 1.71848E-08 9.73684E-08 1.05223E-24
 -1       524 1.77080E-08 1.02901E-07 1.08426E-24
 -1       525 1.82188E-08 1.09098E-07 1.11554E-24
 -1       526 1.87044E-08 1.16032E-07 1.14528E-24
 -1       527 1.91417E-08 1.23790E-07 1.17205E-24
 -1       528 1.94929E-08 1.32479E-07 1.19356E-24
 -1       529 1.97000E-08 1.42244E-07 1.20624E-24
 -1       530 1.96805E-08 1.53287E-07 1.20505E-24
 -1       531 1.93308E-08 1.65895E-07 1.18363E-24
 -1       601 2.80148E-09 4.75270E-08 1.71536E-25
 -1       602 3.33799E-09 4.89056E-08 2.04386E-25
 -1       603 3.86493E-09 5.00593E-08 2.36651E-25
 -1       604 4.38181E-09 5.10663E-08 2.68300E-25
 -1       605 4.88895E-09 5.19833E-08 2.99352E-25
 -1       606 5.38646E-09 5.28530E-08 3.29815E-25
 -1       607 5.87397E-09 5.37092E-08 3.59665E-25
 -1       608 6.35069E-09 5.45805E-08 3.88855E-25
 -1       609 6.81560E-09 5.54923E-08 4.17322E-25
 -1       610 7.26776E-09 5.64690E-08 4.45007E-25
 -1       611 7.70636E-09 5.75343E-08 4.71863E-25
 -1       612 8.13089E-09 5.87122E-08 4.97857E-25
 -1       613 8.54119E-09 6.00275E-08 5.22980E-25
 -1       614 8.93747E-09 6.15061E-08 5.47244E-25
 -1       615 9.32039E-09 6.31756E-08 5.70690E-25
 -1       616 9.69101E-09 6.50649E-08 5.93384E-25
 -1       617 1.00509E-08 6.72052E-08 6.15419E-25
 -1       618 1.04020E-08 6.96297E-08 6.36917E-25
 -1       619 1.07467E-08 7.23743E-08 6.58022E-25
 -1       620 1.10875E-08 7.54775E-08 6.78891E-25
 -1       621 1.14271E-08 7.89810E-08 6.99683E-25
 -1       622 1.17676E-08 8.29303E-08 7.20536E-25
 -1       623 1.21105E-08 8.73756E-08 7.41528E-25
 -1       624 1.24550E-08 9.23728E-08 7.62625E-25
 -1       625 1.27977E-08 9.79853E-08 7.83606E-25
 -1       626 1.31300E-08 1.04287E-07 8.03956E-25
 -1       627 1.34367E-08 1.11368E-07 8.22736E-25
 -1       628 1.36932E-08 1.19336E-07 8.38441E-25
 -1       629 1.38637E-08 1.28332E-07 8.48881E-25
 -1       630 1.39013E-08 1.38538E-07 8.51181E-25
 -1       631 1.37519E-08 1.50190E-07 8.42034E-25
 -1       701 1.13528E-09 4.16067E-08 6.95138E-26
 -1       702 1.65449E-09 4.28885E-08 1.01305E-25
 -1       703 2.13856E-09 4.39646E-08 1.30945E-25
 -1       704 2.59278E-09 4.49034E-08 1.58757E-25
 -1       705 3.02062E-09 4.57556E-08 1.84954E-25
 -1       706 3.42440E-09 4.65602E-08 2.09677E-25
 -1       707 3.80550E-09 4.73485E-08 2.33012E-25
 -1       708 4.16466E-09 4.81470E-08 2.55003E-25
 -1       709 4.50220E-09 4.89792E-08 2.75671E-25
 -1       710 4.81827E-09 4.98671E-08 2.95024E-25
 -1       711 5.11305E-09 5.08322E-08 3.13073E-25
 -1       712 5.38688E-09 5.18959E-08 3.29840E-25
 -1       713 5.64041E-09 5.30802E-08 3.45364E-25
 -1       714 5.87464E-09 5.44080E-08 3.59706E-25
 -1       715 6.09104E-09 5.59037E-08 3.72957E-25
 -1       716 6.29156E-09 5.75928E-08 3.85234E-25
 -1       717 6.47865E-09 5.95031E-08 3.96690E-25
 -1       718 6.65531E-09 6.16642E-08 4.07507E-25
 -1       719 6.82498E-09 6.41082E-08 4.17896E-25
 -1       720 6.99150E-09 6.68701E-08 4.28092E-25
 -1       721 7.15891E-09 6.99882E-08 4.38342E-25
 -1       722 7.33119E-09 7.35047E-08 4.48891E-25
 -1       723 7.51180E-09 7.74669E-08 4.59950E-25
 -1       724 7.70313E-09 8.19281E-08 4.71665E-25
 -1       725 7.90572E-09 8.69499E-08 4.84070E-25
 -1       726 8.11729E-09 9.26041E-08 4.97024E-25
 -1       727 8.33175E-09 9.89768E-08 5.10156E-25
 -1       728 8.53832E-09 1.06172E-07 5.22804E-25
 -1       729 8.72140E-09 1.14319E-07 5.34014E-25
 -1       730 8.86173E-09 1.23575E-07 5.42607E-25
 -1       731 8.94013E-09 1.34136E-07 5.47407E-25
 -1       801-4.08714E-10 3.59015E-08-2.50257E-26
 -1       802 9.43952E-11 3.70643E-08 5.77985E-27
 -1       803 5.39815E-10 3.80436E-08 3.30531E-26
 -1       804 9.38157E-10 3.88986E-08 5.74437E-26
 -1       805 1.29597E-09 3.96735E-08 7.93526E-26
 -1       806 1.61750E-09 4.04027E-08 9.90402E-26
 -1       807 1.90559E-09 4.11145E-08 1.16680E-25
 -1       808 2.16217E-09 4.18326E-08 1.32390E-25
 -1       809 2.38858E-09 4.25782E-08 1.46254E-25
 -1       810 2.58591E-09 4.33709E-08 1.58336E-25
 -1       811 2.75515E-09 4.42297E-08 1.68699E-25
 -1       812 2.89742E-09 4.51735E-08 1.77410E-25
 -1       813 3.01408E-09 4.62216E-08 1.84553E-25
 -1       814 3.10684E-09 4.73940E-08 1.90233E-25
 -1       815 3.17788E-09 4.87119E-08 1.94583E-25
 -1       816 3.22991E-09 5.01977E-08 1.97768E-25
 -1       817 3.26621E-09 5.18757E-08 1.99991E-25
 -1       818 3.29068E-09 5.37720E-08 2.01489E-25
 -1       819 3.30781E-09 5.59150E-08 2.02538E-25
 -1       820 3.32268E-09 5.83359E-08 2.03449E-25
 -1       821 3.34083E-09 6.10692E-08 2.04560E-25
 -1       822 3.36815E-09 6.41532E-08 2.06233E-25
 -1       823 3.41061E-09 6.76314E-08 2.08833E-25
 -1       824 3.47402E-09 7.15533E-08 2.12715E-25
 -1       825 3.56361E-09 7.59759E-08 2.18201E-25
 -1       826 3.68374E-09 8.09662E-08 2.25557E-25
 -1       827 3.83758E-09 8.66036E-08 2.34976E-25
 -1       828 4.02715E-09 9.29828E-08 2.46584E-25
 -1       829 4.25390E-09 1.00218E-07 2.60467E-25
 -1       830 4.52018E-09 1.08445E-07 2.76772E-25
 -1       831 4.83207E-09 1.17826E-07 2.95869E-25
 -1       901-1.80209E-09 3.03915E-08-1.10342E-25
 -1       902-1.31359E-09 3.14173E-08-8.04316E-26
 -1       903-9.02343E-10 3.22839E-08-5.52507E-26
 -1       904-5.52968E-10 3.30413E-08-3.38584E-26
 -1       905-2.56125E-10 3.37273E-08-1.56826E-26
 -1       906-5.80119E-12 3.43716E-08-3.55209E-28
 -1       907 2.02071E-10 3.49986E-08 1.23729E-26
 -1       908 3.70376E-10 3.56291E-08 2.26783E-26
 -1       909 5.01296E-10 3.62815E-08 3.06945E-26
 -1       910 5.96635E-10 3.69730E-08 3.65322E-26
 -1       911 6.58073E-10 3.77200E-08 4.02940E-26
 -1       912 6.87355E-10 3.85388E-08 4.20869E-26
 -1       913 6.86452E-10 3.94461E-08 4.20317E-26
 -1       914 6.57697E-10 4.04590E-08 4.02710E-26
 -1       915 6.03894E-10 4.15956E-08 3.69766E-26
 -1       916 5.28418E-10 4.28753E-08 3.23552E-26
 -1       917 4.35284E-10 4.43188E-08 2.66526E-26
 -1       918 3.29229E-10 4.59487E-08 2.01588E-26
 -1       919 2.15749E-10 4.77896E-08 1.32104E-26
 -1       920 1.01126E-10 4.98688E-08 6.19195E-27
 -1       921-7.56096E-12 5.22166E-08-4.62960E-28
 -1       922-1.02456E-10 5.48671E-08-6.27338E-27
 -1       923-1.74959E-10 5.78588E-08-1.07128E-26
 -1       924-2.15769E-10 6.12360E-08-1.32116E-26
 -1       925-2.14902E-10 6.50500E-08-1.31585E-26
 -1       926-1.61628E-10 6.93605E-08-9.89655E-27
 -1       927-4.42666E-11 7.42381E-08-2.71046E-27
 -1       928 1.50304E-10 7.97658E-08 9.20317E-27
 -1       929 4.37549E-10 8.60420E-08 2.67913E-26
 -1       930 8.36734E-10 9.31820E-08 5.12335E-26
 -1       931 1.37301E-09 1.01320E-07 8.40700E-26
 -1      1001-3.02078E-09 2.50534E-08-1.84963E-25
 -1      1002-2.54516E-09 2.59279E-08-1.55841E-25
 -1      1003-2.16333E-09 2.66688E-08-1.32461E-25
 -1      1004-1.85582E-09 2.73171E-08-1.13632E-25
 -1      1005-1.61084E-09 2.79042E-08-9.86325E-26
 -1      1006-1.42086E-09 2.84548E-08-8.69994E-26
 -1      1007-1.28073E-09 2.89895E-08-7.84193E-26
 -1      1008-1.18679E-09 2.95257E-08-7.26672E-26
 -1      1009-1.13619E-09 3.00791E-08-6.95693E-26
 -1      1010-1.12656E-09 3.06640E-08-6.89798E-26
 -1      1011-1.15568E-09 3.12944E-08-7.07629E-26
 -1      1012-1.22130E-09 3.19839E-08-7.47807E-26
 -1      1013-1.32093E-09 3.27463E-08-8.08812E-26
 -1      1014-1.45174E-09 3.35961E-08-8.88905E-26
 -1      1015-1.61038E-09 3.45483E-08-9.86039E-26
 -1      1016-1.79289E-09 3.56192E-08-1.09780E-25
 -1      1017-1.99461E-09 3.68260E-08-1.22131E-25
 -1      1018-2.21004E-09 3.81877E-08-1.35321E-25
 -1      1019-2.43275E-09 3.97252E-08-1.48958E-25
 -1      1020-2.65530E-09 4.14615E-08-1.62585E-25
 -1      1021-2.86915E-09 4.34224E-08-1.75679E-25
 -1      1022-3.06453E-09 4.56370E-08-1.87642E-25
 -1      1023-3.23032E-09 4.81386E-08-1.97794E-25
 -1      1024-3.35391E-09 5.09652E-08-2.05361E-25
 -1      1025-3.42093E-09 5.41609E-08-2.09465E-25
 -1      1026-3.41494E-09 5.77770E-08-2.09098E-25
 -1      1027-3.31690E-09 6.18737E-08-2.03095E-25
 -1      1028-3.10444E-09 6.65212E-08-1.90086E-25
 -1      1029-2.75082E-09 7.18017E-08-1.68434E-25
 -1      1030-2.22355E-09 7.78105E-08-1.36149E-25
 -1      1031-1.48270E-09 8.46571E-08-9.07865E-26
 -1      1101-4.04475E-09 1.98621E-08-2.47661E-25
 -1      1102-3.58005E-09 2.05741E-08-2.19208E-25
 -1      1103-3.22263E-09 2.11787E-08-1.97322E-25
 -1      1104-2.94967E-09 2.17084E-08-1.80609E-25
 -1      1105-2.74736E-09 2.21881E-08-1.68222E-25
 -1      1106-2.60685E-09 2.26377E-08-1.59618E-25
 -1      1107-2.52213E-09 2.30736E-08-1.54431E-25
 -1      1108-2.48888E-09 2.35098E-08-1.52395E-25
 -1      1109-2.50375E-09 2.39590E-08-1.53306E-25
 -1      1110-2.56391E-09 2.44327E-08-1.56989E-25
 -1      1111-2.66672E-09 2.49423E-08-1.63284E-25
 -1      1112-2.80953E-09 2.54986E-08-1.72028E-25
 -1      1113-2.98946E-09 2.61128E-08-1.83045E-25
 -1      1114-3.20325E-09 2.67964E-08-1.96136E-25
 -1      1115-3.44711E-09 2.75616E-08-2.11068E-25
 -1      1116-3.71661E-09 2.84212E-08-2.27569E-25
 -1      1117-4.00651E-09 2.93894E-08-2.45320E-25
 -1      1118-4.31063E-09 3.04812E-08-2.63941E-25
 -1      1119-4.62173E-09 3.17137E-08-2.82990E-25
 -1      1120-4.93133E-09 3.31055E-08-3.01947E-25
 -1      1121-5.22956E-09 3.46775E-08-3.20208E-25
 -1      1122-5.50492E-09 3.64537E-08-3.37068E-25
 -1      1123-5.74406E-09 3.84612E-08-3.51710E-25
 -1      1124-5.93142E-09 4.07310E-08-3.63183E-25
 -1      1125-6.04887E-09 4.32995E-08-3.70374E-25
 -1      1126-6.07516E-09 4.62085E-08-3.71984E-25
 -1      1127-5.98522E-09 4.95068E-08-3.66477E-25
 -1      1128-5.74925E-09 5.32511E-08-3.52028E-25
 -1      1129-5.33167E-09 5.75074E-08-3.26460E-25
 -1      1130-4.68973E-09 6.23516E-08-2.87154E-25
 -1      1131-3.77205E-09 6.78704E-08-2.30964E-25
 -1      1201-4.85780E-09 1.47902E-08-2.97445E-25
 -1      1202-4.40184E-09 1.53313E-08-2.69526E-25
 -1      1203-4.06361E-09 1.57915E-08-2.48816E-25
 -1      1204-3.81773E-09 1.61951E-08-2.33761E-25
 -1      1205-3.64876E-09 1.65608E-08-2.23414E-25
 -1      1206-3.54682E-09 1.69033E-08-2.17173E-25
 -1      1207-3.50521E-09 1.72350E-08-2.14625E-25
 -1      1208-3.51911E-09 1.75664E-08-2.15476E-25
 -1      1209-3.58478E-09 1.79072E-08-2.19497E-25
 -1      1210-3.69902E-09 1.82659E-08-2.26492E-25
 -1      1211-3.85892E-09 1.86512E-08-2.36283E-25
 -1      1212-4.06151E-09 1.90712E-08-2.48688E-25
 -1      1213-4.30360E-09 1.95344E-08-2.63511E-25
 -1      1214-4.58162E-09 2.00493E-08-2.80534E-25
 -1      1215-4.89144E-09 2.06252E-08-2.99504E-25
 -1      1216-5.22822E-09 2.12718E-08-3.20125E-25
 -1      1217-5.58626E-09 2.19995E-08-3.42048E-25
 -1      1218-5.95883E-09 2.28200E-08-3.64861E-25
 -1      1219-6.33802E-09 2.37459E-08-3.88079E-25
 -1      1220-6.71447E-09 2.47915E-08-4.11129E-25
 -1      1221-7.07720E-09 2.59727E-08-4.33339E-25
 -1      1222-7.41326E-09 2.73077E-08-4.53916E-25
 -1      1223-7.70746E-09 2.88172E-08-4.71930E-25
 -1      1224-7.94185E-09 3.05249E-08-4.86282E-25
 -1      1225-8.09529E-09 3.24584E-08-4.95677E-25
 -1      1226-8.14271E-09 3.46497E-08-4.98581E-25
 -1      1227-8.05436E-09 3.71356E-08-4.93171E-25
 -1      1228-7.79482E-09 3.99590E-08-4.77279E-25
 -1      1229-7.32181E-09 4.31694E-08-4.48317E-25
 -1      1230-6.58490E-09 4.68237E-08-4.03196E-25
 -1      1231-5.52403E-09 5.09866E-08-3.38238E-25
 -1      1301-5.44742E-09 9.80915E-09-3.33547E-25
 -1      1302-4.99783E-09 1.01732E-08-3.06019E-25
 -1      1303-4.67344E-09 1.04831E-08-2.86157E-25
 -1      1304-4.44700E-09 1.07552E-08-2.72291E-25
 -1      1305-4.30193E-09 1.10018E-08-2.63408E-25
 -1      1306-4.22759E-09 1.12327E-08-2.58857E-25
 -1      1307-4.21680E-09 1.14561E-08-2.58196E-25
 -1      1308-4.26437E-09 1.16791E-08-2.61109E-25
 -1      1309-4.36626E-09 1.19081E-08-2.67347E-25
 -1      1310-4.51906E-09 1.21489E-08-2.76704E-25
 -1      1311-4.71963E-09 1.24073E-08-2.88984E-25
 -1      1312-4.96478E-09 1.26886E-08-3.03995E-25
 -1      1313-5.25113E-09 1.29986E-08-3.21528E-25
 -1      1314-5.57486E-09 1.33430E-08-3.41350E-25
 -1      1315-5.93160E-09 1.37279E-08-3.63194E-25
 -1      1316-6.31623E-09 1.41598E-08-3.86745E-25
 -1      1317-6.72270E-09 1.46458E-08-4.11633E-25
 -1      1318-7.14388E-09 1.51936E-08-4.37422E-25
 -1      1319-7.57132E-09 1.58116E-08-4.63594E-25
 -1      1320-7.99503E-09 1.65096E-08-4.89538E-25
 -1      1321-8.40318E-09 1.72982E-08-5.14529E-25
 -1      1322-8.78175E-09 1.81897E-08-5.37709E-25
 -1      1323-9.11417E-09 1.91979E-08-5.58063E-25
 -1      1324-9.38075E-09 2.03390E-08-5.74386E-25
 -1      1325-9.55813E-09 2.16315E-08-5.85247E-25
 -1      1326-9.61853E-09 2.30969E-08-5.88945E-25
 -1      1327-9.52886E-09 2.47600E-08-5.83455E-25
 -1      1328-9.24973E-09 2.66494E-08-5.66364E-25
 -1      1329-8.73421E-09 2.87982E-08-5.34798E-25
 -1      1330-7.92649E-09 3.12443E-08-4.85342E-25
 -1      1331-6.76039E-09 3.40309E-08-4.13941E-25
 -1      1401-5.80474E-09 4.88921E-09-3.55426E-25
 -1      1402-5.35903E-09 5.07218E-09-3.28135E-25
 -1      1403-5.04299E-09 5.22813E-09-3.08784E-25
 -1      1404-4.82825E-09 5.36507E-09-2.95635E-25
 -1      1405-4.69755E-09 5.48918E-09-2.87632E-25
 -1      1406-4.63980E-09 5.60537E-09-2.84097E-25
 -1      1407-4.64752E-09 5.71776E-09-2.84569E-25
 -1      1408-4.71528E-09 5.82989E-09-2.88718E-25
 -1      1409-4.83888E-09 5.94496E-09-2.96286E-25
 -1      1410-5.01479E-09 6.06589E-09-3.07057E-25
 -1      1411-5.23971E-09 6.19550E-09-3.20829E-25
 -1      1412-5.51035E-09 6.33659E-09-3.37401E-25
 -1      1413-5.82320E-09 6.49194E-09-3.56556E-25
 -1      1414-6.17429E-09 6.66446E-09-3.78054E-25
 -1      1415-6.55912E-09 6.85720E-09-4.01617E-25
 -1      1416-6.97237E-09 7.07343E-09-4.26920E-25
 -1      1417-7.40780E-09 7.31667E-09-4.53582E-25
 -1      1418-7.85801E-09 7.59079E-09-4.81149E-25
 -1      1419-8.31425E-09 7.90009E-09-5.09084E-25
 -1      1420-8.76611E-09 8.24936E-09-5.36752E-25
 -1      1421-9.20124E-09 8.64401E-09-5.63395E-25
 -1      1422-9.60497E-09 9.09018E-09-5.88115E-25
 -1      1423-9.95986E-09 9.59491E-09-6.09846E-25
 -1      1424-1.02452E-08 1.01663E-08-6.27316E-25
 -1      1425-1.04362E-08 1.08136E-08-6.39013E-25
 -1      1426-1.05036E-08 1.15477E-08-6.43136E-25
 -1      1427-1.04121E-08 1.23809E-08-6.37538E-25
 -1      1428-1.01202E-08 1.33278E-08-6.19662E-25
 -1      1429-9.57803E-09 1.44047E-08-5.86466E-25
 -1      1430-8.72667E-09 1.56307E-08-5.34337E-25
 -1      1431-7.49626E-09 1.70273E-08-4.58998E-25
 -1      1501-5.92443E-09 0.00000E+00-3.62755E-25
 -1      1502-5.48002E-09 0.00000E+00-3.35544E-25
 -1      1503-5.16677E-09 0.00000E+00-3.16363E-25
 -1      1504-4.95595E-09 0.00000E+00-3.03454E-25
 -1      1505-4.83004E-09 0.00000E+00-2.95745E-25
 -1      1506-4.77783E-09 0.00000E+00-2.92548E-25
 -1      1507-4.79171E-09 0.00000E+00-2.93398E-25
 -1      1508-4.86620E-09 0.00000E+00-2.97959E-25
 -1      1509-4.99705E-09 0.00000E+00-3.05971E-25
 -1      1510-5.18065E-09 0.00000E+00-3.17213E-25
 -1      1511-5.41369E-09 0.00000E+00-3.31482E-25
 -1      1512-5.69282E-09 0.00000E+00-3.48573E-25
 -1      1513-6.01448E-09 0.00000E+00-3.68269E-25
 -1      1514-6.37469E-09 0.00000E+00-3.90324E-25
 -1      1515-6.76886E-09 0.00000E+00-4.14460E-25
 -1      1516-7.19164E-09 0.00000E+00-4.40346E-25
 -1      1517-7.63670E-09 0.00000E+00-4.67598E-25
 -1      1518-8.09658E-09 0.00000E+00-4.95756E-25
 -1      1519-8.56239E-09 0.00000E+00-5.24278E-25
 -1      1520-9.02359E-09 0.00000E+00-5.52517E-25
 -1      1521-9.46767E-09 0.00000E+00-5.79708E-25
 -1      1522-9.87973E-09 0.00000E+00-6.04939E-25
 -1      1523-1.02420E-08 0.00000E+00-6.27123E-25
 -1      1524-1.05335E-08 0.00000E+00-6.44970E-25
 -1      1525-1.07290E-08 0.00000E+00-6.56939E-25
 -1      1526-1.07985E-08 0.00000E+00-6.61195E-25
 -1      1527-1.07063E-08 0.00000E+00-6.55551E-25
 -1      1528-1.04099E-08 0.00000E+00-6.37403E-25
 -1      1529-9.85870E-09 0.00000E+00-6.03651E-25
 -1      1530-8.99260E-09 0.00000E+00-5.50620E-25
 -1      1531-7.74057E-09 0.00000E+00-4.73957E-25
 -3
    1PSTEP                        16           8           1          
  100CL  108 8.00000E-01         496                     0    8           1
 -4  STRESS      6    1
 -5  SXX         1    4    1    1
 -5  SYY         1    4    2    2
 -5  SZZ         1    4    3    3
 -5  SXY         1    4    1    2
 -5  SYZ         1    4    2    3
 -5  SZX         1    4    3    1
 -1         1 2.86018E+04-3.70548E+05 2.05538E+05-3.81194E+03-3.50406E-09-2.57193E-10
 -1         2 2.97762E+04-3.79360E+05 1.70527E+05-3.19986E+03-2.57697E-10-3.42289E-10
 -1         3 5.13085E+04-3.77410E+05 1.56686E+05-5.56997E+03-7.99560E-10 2.80266E-10
 -1         4 6.91241E+04-3.76272E+05 1.48457E+05-8.09820E+03 1.35360E-10 2.00399E-11
 -1         5 8.58579E+04-3.75153E+05 1.44481E+05-1.05488E+04 2.57082E-10 6.27799E-10
 -1         6 1.02615E+05-3.73727E+05 1.43817E+05-1.27786E+04-9.70752E-11-1.09474E-10
 -1         7 1.19837E+05-3.71908E+05 1.45770E+05-1.47345E+04-2.17362E-10-2.78430E-10
 -1         8 1.37682E+05-3.69701E+05 1.49827E+05-1.64094E+04 1.35608E-09-3.64762E-10
 -1         9 1.56176E+05-3.67140E+05 1.55601E+05-1.78085E+04-4.23778E-10 1.17801E-10
 -1        10 1.75277E+05-3.64268E+05 1.62789E+05-1.89345E+04-7.46945E-10-1.67804E-10
 -1        11 1.94899E+05-3.61126E+05 1.71146E+05-1.97811E+04 2.02276E-09 1.58371E-10
 -1        12 2.14914E+05-3.57757E+05 1.80461E+05-2.03300E+04-5.42167E-10 2.89624E-10
 -1        13 2.35152E+05-3.54207E+05 1.90541E+05-2.05502E+04 5.01465E-10 2.05435E-10
 -1        14 2.55391E+05-3.50527E+05 2.01197E+05-2.03967E+04-9.95327E-10-3.38367E-10
 -1        15 2.75344E+05-3.46781E+05 2.12227E+05-1.98108E+04 2.12837E-09 6.94057E-10
 -1        16 2.94647E+05-3.43049E+05 2.23410E+05-1.87187E+04-2.29884E-10-1.25014E-10
 -1        17 3.12838E+05-3.39433E+05 2.34491E+05-1.70321E+04 1.62894E-10 3.15844E-10
 -1        18 3.29338E+05-3.36066E+05 2.45166E+05-1.46482E+04-6.90749E-10-2.43025E-10
 -1        19 3.43428E+05-3.33118E+05 2.55075E+05-1.14506E+04-1.33942E-10 6.20626E-10
 -1        20 3.54224E+05-3.30803E+05 2.63783E+05-7.31441E+03-3.32868E-10-7.72478E-10
 -1        21 3.60655E+05-3.29383E+05 2.70773E+05-2.11350E+03-9.91479E-10-2.07261E-10
 -1        22 3.61440E+05-3.29168E+05 2.75433E+05 4.26169E+03 6.11441E-10 2.90848E-10
 -1        23 3.55092E+05-3.30501E+05 2.77061E+05 1.18728E+04-7.97633E-11 4.01772E-10
 -1        24 3.39953E+05-3.33707E+05 2.74885E+05 2.06734E+04-2.28611E-09-9.43255E-10
 -1        25 3.14307E+05-3.38994E+05 2.68130E+05 3.03976E+04 1.83267E-09 6.61358E-10
 -1        26 2.76660E+05-3.46210E+05 2.56171E+05 4.03502E+04 1.99199E-09 3.96316E-10
 -1        27 2.26336E+05-3.54348E+05 2.38877E+05 4.90022E+04 1.84899E-10 5.96628E-10
 -1        28 1.64716E+05-3.60496E+05 2.17314E+05 5.32088E+04 5.62142E-10 1.41531E-10
 -1        29 9.78057E+04-3.57700E+05 1.95203E+05 4.67777E+04-1.35319E-09-3.67886E-10
 -1        30 4.32863E+04-3.30299E+05 1.82530E+05 2.20948E+04 1.12458E-09 6.55746E-10
 -1        31 3.87779E+04-2.67131E+05 1.94347E+05 5.51561E+03 1.00351E-09 1.76239E-10
 -1       101 1.13937E+04-3.96803E+05 9.04930E+04-1.06572E+03 1.30495E-09-8.40262E-11
 -1       102 1.29871E+04-3.97907E+05 7.63072E+04-4.33806E+03 6.73613E-10 4.67135E-11
 -1       103 2.17294E+04-3.97054E+05 6.94985E+04-9.54315E+03-6.06535E-10-5.49082E-11
 -1       104 2.91172E+04-3.97309E+05 6.51694E+04-1.41156E+04 1.21092E-09-6.24615E-11
 -1       105 3.53518E+04-3.98270E+05 6.23631E+04-1.80836E+04-1.71437E-09-3.17718E-10
 -1       106 4.07004E+04-3.99700E+05 6.05479E+04-2.14982E+04-1.12161E-10 8.74889E-11
 -1       107 4.53997E+04-4.01456E+05 5.94095E+04-2.44072E+04-2.13179E-10-1.73051E-10
 -1       108 4.96119E+04-4.03468E+05 5.87454E+04-2.68410E+04-4.47978E-10 9.69912E-11
 -1       109 5.34279E+04-4.05705E+05 5.84122E+04-2.88144E+04-2.16746E-10-1.18120E-10
 -1       110 5.68806E+04-4.08160E+05 5.82992E+04-3.03254E+04 5.47819E-10-1.76160E-11
 -1       111 5.99580E+04-4.10842E+05 5.83143E+04-3.13554E+04-1.51236E-09 9.87835E-11
 -1       112 6.26142E+04-4.13771E+05 5.83761E+04-3.18682E+04-4.57949E-10-2.26848E-10
 -1       113 6.47778E+04-4.16966E+05 5.84095E+04-3.18104E+04 6.39701E-10-1.01715E-10
 -1       114 6.63578E+04-4.20453E+05 5.83436E+04-3.11115E+04-4.74501E-10 3.41704E-11
 -1       115 6.72500E+04-4.24250E+05 5.81106E+04-2.96835E+04-1.01386E-09-4.78041E-10
 -1       116 6.73429E+04-4.28376E+05 5.76470E+04-2.74218E+04-8.46704E-11 3.07136E-11
 -1       117 6.65248E+04-4.32836E+05 5.68946E+04-2.42062E+04-3.32993E-10 7.87273E-12
 -1       118 6.46936E+04-4.37625E+05 5.58041E+04-1.99028E+04 1.45892E-10-3.44765E-10
 -1       119 6.17694E+04-4.42713E+05 5.43401E+04-1.43682E+04-2.73728E-10-3.14840E-11
 -1       120 5.77117E+04-4.48037E+05 5.24885E+04-7.45651E+03-3.37424E-10 1.27525E-10
 -1       121 5.25424E+04-4.53484E+05 5.02666E+04 9.68799E+02 1.35430E-09 5.87360E-11
 -1       122 4.63733E+04-4.58866E+05 4.77363E+04 1.10145E+04-6.52115E-10-1.83416E-10
 -1       123 3.94388E+04-4.63880E+05 4.50221E+04 2.27255E+04 4.81150E-10-1.05090E-10
 -1       124 3.21254E+04-4.68048E+05 4.23307E+04 3.60321E+04 5.38353E-10 1.29447E-10
 -1       125 2.49843E+04-4.70626E+05 3.99720E+04 5.06664E+04 1.08149E-10-1.42472E-10
 -1       126 1.86894E+04-4.70445E+05 3.83742E+04 6.60280E+04-3.46567E-10-7.42966E-12
 -1       127 1.38573E+04-4.65646E+05 3.80759E+04 8.09673E+04 4.04681E-10-1.57717E-10
 -1       128 1.05624E+04-4.53199E+05 3.96650E+04 9.34079E+04-3.59897E-10-3.12147E-10
 -1       129 7.29808E+03-4.27953E+05 4.36245E+04 9.95389E+04-3.03588E-10-2.48195E-11
 -1       130 1.62575E+03-3.82095E+05 5.07168E+04 8.75488E+04 3.86894E-10-9.51490E-11
 -1       131 1.29507E+04-2.74186E+05 6.92921E+04 6.49585E+04-6.74179E-11 4.24228E-11
 -1       201 4.74688E+03-3.84361E+05 6.06669E+04-2.26302E+03-9.59599E-10 1.64463E-10
 -1       202 9.31450E+03-3.80643E+05 5.29394E+04-6.68998E+03-8.16170E-10-3.08205E-10
 -1       203 1.71765E+04-3.79570E+05 4.86312E+04-1.30047E+04 1.86673E-10 2.51315E-11
 -1       204 2.24181E+04-3.79836E+05 4.57538E+04-1.84791E+04 5.05960E-11-5.59263E-12
 -1       205 2.63275E+04-3.80716E+05 4.38055E+04-2.31276E+04-1.09321E-09-5.68336E-11
 -1       206 2.94366E+04-3.81877E+05 4.24834E+04-2.71232E+04 4.47345E-10-1.66931E-10
 -1       207 3.20079E+04-3.83171E+05 4.15938E+04-3.05432E+04 2.26186E-10 2.38866E-10
 -1       208 3.41923E+04-3.84548E+05 4.10078E+04-3.34228E+04-9.64066E-11-4.56327E-11
 -1       209 3.60781E+04-3.86004E+05 4.06361E+04-3.57693E+04 2.25297E-10 2.00272E-10
 -1       210 3.77131E+04-3.87567E+05 4.04130E+04-3.75696E+04 5.05084E-10-1.15908E-11
 -1       211 3.91164E+04-3.89277E+05 4.02879E+04-3.87923E+04-5.14880E-11 8.19951E-11
 -1       212 4.02873E+04-3.91185E+05 4.02192E+04-3.93887E+04 1.97109E-10-2.23715E-11
 -1       213 4.12102E+04-3.93350E+05 4.01714E+04-3.92928E+04-1.30986E-10-8.75955E-12
 -1       214 4.18592E+04-3.95831E+05 4.01127E+04-3.84218E+04 4.15305E-11 4.18975E-11
 -1       215 4.22017E+04-3.98695E+05 4.00136E+04-3.66761E+04 2.16488E-10-1.27305E-10
 -1       216 4.22013E+04-4.02011E+05 3.98468E+04-3.39406E+04-1.47484E-10-1.69924E-10
 -1       217 4.18219E+04-4.05848E+05 3.95864E+04-3.00865E+04 6.84163E-11 1.18677E-10
 -1       218 4.10309E+04-4.10273E+05 3.92085E+04-2.49744E+04-9.58893E-11-2.20947E-11
 -1       219 3.98037E+04-4.15345E+05 3.86926E+04-1.84603E+04 6.43247E-10-5.75197E-11
 -1       220 3.81285E+04-4.21105E+05 3.80225E+04-1.04044E+04-3.82625E-10-8.63221E-12
 -1       221 3.60107E+04-4.27555E+05 3.71892E+04-6.84542E+02 3.68531E-10 2.40793E-10
 -1       222 3.34771E+04-4.34632E+05 3.61942E+04 1.07828E+04-7.00105E-10-3.02959E-10
 -1       223 3.05744E+04-4.42155E+05 3.50549E+04 2.40127E+04 4.35981E-10 1.78356E-10
 -1       224 2.73592E+04-4.49734E+05 3.38120E+04 3.89084E+04 9.01191E-10 1.35617E-10
 -1       225 2.38633E+04-4.56630E+05 3.25394E+04 5.52029E+04 1.31572E-11-1.47279E-11
 -1       226 2.00111E+04-4.61484E+05 3.13593E+04 7.23833E+04 8.96972E-11 5.30506E-11
 -1       227 1.54273E+04-4.61852E+05 3.04624E+04 8.96057E+04-1.83916E-10 6.28719E-11
 -1       228 8.98146E+03-4.53291E+05 3.01375E+04 1.05635E+05 4.45981E-10-5.04365E-11
 -1       229-2.37379E+03-4.27584E+05 3.07977E+04 1.18818E+05 4.37466E-10 1.19500E-10
 -1       230-3.07829E+04-3.66049E+05 3.28458E+04 1.28393E+05-4.30742E-10 2.75952E-11
 -1       231-4.40548E+04-2.51523E+05 4.03766E+04 1.21887E+05 8.52249E-11-3.76357E-10
 -1       301 3.47367E+03-3.74664E+05 4.43250E+04-4.41832E+03-6.73751E-10 4.66093E-12
 -1       302 5.89612E+03-3.71670E+05 3.87699E+04-7.89866E+03 1.57749E-09 1.98048E-10
 -1       303 1.06402E+04-3.71343E+05 3.53248E+04-1.45131E+04-1.21973E-09-9.47915E-11
 -1       304 1.45289E+04-3.72123E+05 3.30464E+04-1.97661E+04 2.36509E-10 4.01345E-11
 -1       305 1.74434E+04-3.73460E+05 3.14717E+04-2.42592E+04 1.37810E-09 7.38333E-11
 -1       306 1.96534E+04-3.75080E+05 3.03548E+04-2.81233E+04-5.05355E-10-9.68624E-12
 -1       307 2.13540E+04-3.76858E+05 2.95435E+04-3.14349E+04 2.24653E-10-5.35221E-11
 -1       308 2.26716E+04-3.78752E+05 2.89377E+04-3.42239E+04-2.55049E-10 6.15687E-12
 -1       309 2.36872E+04-3.80769E+05 2.84682E+04-3.64927E+04-3.63759E-10-1.29736E-10
 -1       310 2.44516E+04-3.82941E+05 2.80843E+04-3.82234E+04-2.88831E-10-2.40537E-10
 -1       311 2.49939E+04-3.85317E+05 2.77477E+04-3.93817E+04-2.33082E-10 3.83606E-11
 -1       312 2.53280E+04-3.87959E+05 2.74271E+04-3.99178E+04 1.12834E-10 1.49961E-10
 -1       313 2.54569E+04-3.90935E+05 2.70964E+04-3.97677E+04 4.14000E-10 3.94280E-11
 -1       314 2.53763E+04-3.94316E+05 2.67325E+04-3.88528E+04-5.10369E-11-1.43706E-10
 -1       315 2.50773E+04-3.98181E+05 2.63149E+04-3.70812E+04-2.58634E-10-9.62202E-11
 -1       316 2.45493E+04-4.02608E+05 2.58245E+04-3.43479E+04-2.58126E-10 2.31092E-10
 -1       317 2.37817E+04-4.07674E+05 2.52445E+04-3.05372E+04-3.49527E-11-2.65221E-10
 -1       318 2.27663E+04-4.13454E+05 2.45597E+04-2.55256E+04 1.66239E-10-4.42458E-12
 -1       319 2.14984E+04-4.20007E+05 2.37579E+04-1.91860E+04-4.47282E-10-7.63635E-12
 -1       320 1.99770E+04-4.27372E+05 2.28306E+04-1.13950E+04 1.38682E-10 1.42280E-11
 -1       321 1.82027E+04-4.35544E+05 2.17743E+04-2.04210E+03 7.86361E-10 1.24502E-12
 -1       322 1.61713E+04-4.44448E+05 2.05929E+04 8.95636E+03 9.78643E-11 7.16042E-11
 -1       323 1.38594E+04-4.53888E+05 1.92997E+04 2.16404E+04-8.13355E-10-3.11601E-10
 -1       324 1.11939E+04-4.63480E+05 1.79203E+04 3.59858E+04-4.73917E-10-1.72837E-11
 -1       325 7.99436E+03-4.72527E+05 1.64962E+04 5.18840E+04 4.54111E-12 1.55571E-10
 -1       326 3.86256E+03-4.79828E+05 1.50877E+04 6.91336E+04 5.82672E-10 7.01609E-11
 -1       327-2.02768E+03-4.83364E+05 1.37748E+04 8.74747E+04 9.58508E-11 1.02317E-10
 -1       328-1.13333E+04-4.79763E+05 1.26536E+04 1.06744E+05 9.08755E-10 1.46322E-11
 -1       329-2.74426E+04-4.63256E+05 1.18183E+04 1.27463E+05 4.41179E-10 4.95509E-11
 -1       330-5.55015E+04-4.23804E+05 1.14807E+04 1.52646E+05-9.41085E-11-1.31033E-10
 -1       331-7.22003E+04-3.86098E+05 1.10656E+04 1.67697E+05 1.04209E-09 3.05153E-10
 -1       401 2.04640E+03-3.62363E+05 2.74786E+04-4.57519E+03-3.83632E-10-9.89900E-12
 -1       402 3.30631E+03-3.62434E+05 2.39240E+04-8.41793E+03 3.69819E-10-7.16914E-11
 -1       403 5.90546E+03-3.62958E+05 2.17353E+04-1.51751E+04 4.75589E-10 6.98434E-11
 -1       404 7.90469E+03-3.64337E+05 2.01768E+04-2.04133E+04-1.21264E-09-1.37119E-10
 -1       405 9.46886E+03-3.66161E+05 1.90458E+04-2.47379E+04-1.39531E-10-1.99339E-10
 -1       406 1.06025E+04-3.68244E+05 1.81864E+04-2.84186E+04-2.22065E-10 4.45983E-11
 -1       407 1.13679E+04-3.70499E+05 1.74998E+04-3.15565E+04-9.48716E-10-6.62108E-11
 -1       408 1.18268E+04-3.72901E+05 1.69194E+04-3.41914E+04 2.66776E-10 9.52704E-11
 -1       409 1.20291E+04-3.75467E+05 1.63988E+04-3.63280E+04-7.13336E-10-1.42628E-10
 -1       410 1.20126E+04-3.78236E+05 1.59039E+04-3.79490E+04-1.50912E-10 4.28561E-11
 -1       411 1.18043E+04-3.81266E+05 1.54086E+04-3.90201E+04 9.14024E-11-2.77809E-11
 -1       412 1.14230E+04-3.84627E+05 1.48919E+04-3.94932E+04 8.62575E-11 1.36448E-10
 -1       413 1.08816E+04-3.88393E+05 1.43361E+04-3.93072E+04-5.45375E-10-9.43886E-11
 -1       414 1.01887E+04-3.92648E+05 1.37260E+04-3.83888E+04 3.56115E-12 4.83899E-11
 -1       415 9.35047E+03-3.97476E+05 1.30481E+04-3.66532E+04 6.93292E-10 1.57969E-10
 -1       416 8.37189E+03-4.02964E+05 1.22904E+04-3.40047E+04-4.54215E-10-1.72191E-10
 -1       417 7.25776E+03-4.09197E+05 1.14422E+04-3.03381E+04 4.78583E-10 1.99076E-10
 -1       418 6.01274E+03-4.16255E+05 1.04948E+04-2.55407E+04-6.71293E-10-2.30242E-10
 -1       419 4.64030E+03-4.24201E+05 9.44104E+03-1.94949E+04 1.67745E-10 1.04369E-10
 -1       420 3.13974E+03-4.33076E+05 8.27659E+03-1.20825E+04 6.47957E-10 5.09867E-11
 -1       421 1.49991E+03-4.42878E+05 7.00015E+03-3.18895E+03-3.41256E-10 6.16113E-12
 -1       422-3.12342E+02-4.53536E+05 5.61423E+03 7.29085E+03 7.16219E-10 1.10507E-10
 -1       423-2.37241E+03-4.64875E+05 4.12581E+03 1.94480E+04 1.61035E-10 1.09669E-10
 -1       424-4.83220E+03-4.76554E+05 2.54656E+03 3.33587E+04 4.84530E-10-7.98265E-11
 -1       425-7.97667E+03-4.87988E+05 8.92386E+02 4.90942E+04-8.40781E-11 5.64069E-11
 -1       426-1.23151E+04-4.98220E+05-8.18701E+02 6.67577E+04-7.67846E-10-1.62033E-10
 -1       427-1.87226E+04-5.05755E+05-2.57157E+03 8.65796E+04 1.03053E-09 5.38508E-11
 -1       428-2.86461E+04-5.08321E+05-4.36373E+03 1.09152E+05-2.51613E-10 1.11944E-10
 -1       429-4.42374E+04-5.02650E+05-6.21389E+03 1.35947E+05 1.95680E-10-8.25627E-11
 -1       430-6.83244E+04-4.84813E+05-8.20959E+03 1.70434E+05 7.16658E-10-1.85807E-10
 -1       431-8.41570E+04-4.82970E+05-1.17627E+04 1.92323E+05-3.54523E-10 1.98385E-10
 -1       501 8.10577E+02-3.50233E+05 1.05927E+04-4.47150E+03-8.88566E-10-4.71383E-10
 -1       502 1.04248E+03-3.52448E+05 9.09413E+03-8.27918E+03 4.55718E-10 1.42084E-10
 -1       503 1.75501E+03-3.54395E+05 8.12391E+03-1.50556E+04 2.91935E-10 6.89448E-11
 -1       504 2.16462E+03-3.56540E+05 7.36795E+03-2.02677E+04 4.29007E-10 5.39882E-11
 -1       505 2.37155E+03-3.58930E+05 6.73815E+03-2.44767E+04-5.95512E-10-9.71001E-11
 -1       506 2.38527E+03-3.61504E+05 6.18317E+03-2.79839E+04 5.64674E-10 1.32710E-10
 -1       507 2.19505E+03-3.64238E+05 5.66298E+03-3.09360E+04-2.75368E-10-4.65113E-11
 -1       508 1.80736E+03-3.67135E+05 5.14843E+03-3.33943E+04-2.55779E-11-1.00942E-10
 -1       509 1.23740E+03-3.70229E+05 4.61781E+03-3.53751E+04 4.00172E-10 7.45528E-11
 -1       510 5.03245E+02-3.73571E+05 4.05440E+03-3.68673E+04 7.26622E-11 3.16788E-11
 -1       511-3.76991E+02-3.77226E+05 3.44484E+03-3.78411E+04-5.35167E-10-1.20223E-10
 -1       512-1.38626E+03-3.81270E+05 2.77804E+03-3.82525E+04-2.36082E-10-2.44703E-11
 -1       513-2.50867E+03-3.85788E+05 2.04453E+03-3.80452E+04 4.85728E-10 9.87886E-11
 -1       514-3.72916E+03-3.90868E+05 1.23597E+03-3.71516E+04-3.47314E-10-9.65151E-11
 -1       515-5.03316E+03-3.96603E+05 3.45012E+02-3.54938E+04-4.91260E-11 5.81270E-11
 -1       516-6.40641E+03-4.03087E+05-6.34875E+02-3.29838E+04-1.11386E-10-1.03109E-10
 -1       517-7.83524E+03-4.10413E+05-1.70927E+03-2.95242E+04 4.02576E-10 3.05548E-11
 -1       518-9.30771E+03-4.18666E+05-2.88276E+03-2.50091E+04-5.34495E-10-8.72452E-12
 -1       519-1.08162E+04-4.27918E+05-4.15875E+03-1.93247E+04 4.85169E-10-2.31544E-12
 -1       520-1.23616E+04-4.38219E+05-5.53927E+03-1.23503E+04-4.69131E-11-2.04515E-11
 -1       521-1.39618E+04-4.49582E+05-7.02490E+03-3.95857E+03-9.66488E-11 5.39069E-11
 -1       522-1.56629E+04-4.61961E+05-8.61483E+03 5.98583E+03-1.02406E-10-7.24984E-11
 -1       523-1.75597E+04-4.75225E+05-1.03071E+04 1.76309E+04 3.90509E-11 2.94804E-11
 -1       524-1.98233E+04-4.89119E+05-1.20998E+04 3.11493E+04 1.88354E-10-1.79807E-11
 -1       525-2.27432E+04-5.03211E+05-1.39926E+04 4.67646E+04 6.16090E-10-8.39441E-12
 -1       526-2.67838E+04-5.16832E+05-1.59903E+04 6.48038E+04 8.20239E-10 1.08351E-10
 -1       527-3.26514E+04-5.29009E+05-1.81082E+04 8.57991E+04-1.03612E-09-1.06776E-10
 -1       528-4.13479E+04-5.38425E+05-2.03807E+04 1.10672E+05 8.17136E-10 1.09802E-10
 -1       529-5.41587E+04-5.43515E+05-2.28757E+04 1.41050E+05 5.60018E-10 1.28426E-10
 -1       530-7.24167E+04-5.42869E+05-2.57152E+04 1.79683E+05-1.01741E-09 1.46482E-11
 -1       531-8.54497E+04-5.62230E+05-3.05578E+04 2.04692E+05-4.48808E-10 8.46326E-11
 -1       601-3.88868E+02-3.38645E+05-5.86152E+03-4.21475E+03-3.08293E-10-7.08116E-11
 -1       602-1.04134E+03-3.42481E+05-5.37107E+03-7.86386E+03 2.96696E-10 5.34421E-11
 -1       603-2.00860E+03-3.45749E+05-5.15144E+03-1.43875E+04 1.15421E-10-4.72487E-11
 -1       604-2.99291E+03-3.48807E+05-5.11523E+03-1.94568E+04 2.78990E-10 2.08394E-10
 -1       605-3.98738E+03-3.51846E+05-5.22169E+03-2.35179E+04 3.01535E-10 7.13315E-11
 -1       606-5.01881E+03-3.54954E+05-5.44431E+03-2.68524E+04 4.92325E-10-5.10280E-11
 -1       607-6.11936E+03-3.58177E+05-5.76774E+03-2.96191E+04-7.24700E-11 1.35159E-10
 -1       608-7.31225E+03-3.61561E+05-6.18463E+03-3.18972E+04-8.26126E-10-1.39319E-10
 -1       609-8.60696E+03-3.65161E+05-6.69192E+03-3.37162E+04 2.49411E-10 3.89963E-11
 -1       610-1.00026E+04-3.69044E+05-7.28889E+03-3.50747E+04-2.25429E-10 9.32524E-11
 -1       611-1.14914E+04-3.73285E+05-7.97615E+03-3.59501E+04 5.55319E-10 9.03603E-12
 -1       612-1.30610E+04-3.77968E+05-8.75510E+03-3.63048E+04-9.71515E-11 6.32127E-11
 -1       613-1.46962E+04-3.83185E+05-9.62751E+03-3.60885E+04-7.30366E-11-1.33382E-11
 -1       614-1.63797E+04-3.89031E+05-1.05954E+04-3.52401E+04 1.70419E-10 6.51721E-11
 -1       615-1.80926E+04-3.95606E+05-1.16607E+04-3.36883E+04 5.09952E-12-9.22492E-11
 -1       616-1.98152E+04-4.03011E+05-1.28254E+04-3.13517E+04 3.59946E-10 7.97816E-11
 -1       617-2.15281E+04-4.11348E+05-1.40910E+04-2.81392E+04-9.57420E-11 2.96006E-11
 -1       618-2.32140E+04-4.20711E+05-1.54587E+04-2.39489E+04 1.59742E-10 7.88501E-11
 -1       619-2.48606E+04-4.31186E+05-1.69293E+04-1.86681E+04-2.38180E-10-1.03401E-10
 -1       620-2.64652E+04-4.42838E+05-1.85031E+04-1.21709E+04-4.61859E-10-1.86969E-10
 -1       621-2.80421E+04-4.55705E+05-2.01800E+04-4.31553E+03 1.69025E-11 7.76925E-11
 -1       622-2.96328E+04-4.69783E+05-2.19601E+04 5.06160E+03-1.89774E-10-6.10436E-11
 -1       623-3.13208E+04-4.85003E+05-2.38441E+04 1.61560E+04 7.39762E-11 7.83698E-11
 -1       624-3.32511E+04-5.01216E+05-2.58347E+04 2.92131E+04 2.68498E-10-1.30967E-10
 -1       625-3.56547E+04-5.18162E+05-2.79387E+04 4.45582E+04-2.17824E-10-7.06243E-11
 -1       626-3.88751E+04-5.35450E+05-3.01694E+04 6.26464E+04 5.40892E-10-2.90329E-11
 -1       627-4.33890E+04-5.52551E+05-3.25516E+04 8.41415E+04-6.05346E-10-4.31682E-11
 -1       628-4.98020E+04-5.68835E+05-3.51272E+04 1.10032E+05-7.90207E-10-4.74107E-11
 -1       629-5.87847E+04-5.83701E+05-3.79638E+04 1.41786E+05-6.89128E-10-1.93795E-11
 -1       630-7.09043E+04-5.96896E+05-4.11670E+04 1.81504E+05-2.45364E-10 1.83659E-10
 -1       631-8.07896E+04-6.30233E+05-4.64591E+04 2.07232E+05-1.45114E-09-1.81841E-10
 -1       701-1.50100E+03-3.27798E+05-2.15001E+04-3.87628E+03-1.85661E-10 5.57516E-11
 -1       702-2.94893E+03-3.32926E+05-1.91486E+04-7.26926E+03-6.63524E-10-7.72388E-11
 -1       703-5.43234E+03-3.37349E+05-1.78039E+04-1.33624E+04-3.14480E-10-7.67272E-11
 -1       704-7.64555E+03-3.41295E+05-1.70083E+04-1.81455E+04-4.44092E-10-1.48563E-10
 -1       705-9.69415E+03-3.45020E+05-1.66018E+04-2.19820E+04 1.21663E-10-4.97449E-11
 -1       706-1.16523E+04-3.48688E+05-1.64855E+04-2.51106E+04-9.16344E-11 1.03186E-10
 -1       707-1.35760E+04-3.52408E+05-1.65966E+04-2.76803E+04 1.84638E-10-3.56849E-12
 -1       708-1.55046E+04-3.56268E+05-1.68950E+04-2.97741E+04-3.40326E-10-5.84662E-11
 -1       709-1.74622E+04-3.60351E+05-1.73546E+04-3.14303E+04 1.52576E-10-1.56077E-11
 -1       710-1.94598E+04-3.64740E+05-1.79580E+04-3.26559E+04 4.98677E-10 9.97111E-12
 -1       711-2.14977E+04-3.69523E+05-1.86938E+04-3.34363E+04-2.92290E-10-5.61056E-11
 -1       712-2.35687E+04-3.74793E+05-1.95542E+04-3.37410E+04-1.90053E-11-8.75964E-11
 -1       713-2.56593E+04-3.80649E+05-2.05338E+04-3.35266E+04-1.11306E-10-3.53969E-11
 -1       714-2.77519E+04-3.87194E+05-2.16287E+04-3.27388E+04-3.00433E-10-1.50033E-10
 -1       715-2.98253E+04-3.94535E+05-2.28362E+04-3.13130E+04-7.03321E-12 1.35797E-10
 -1       716-3.18563E+04-4.02783E+05-2.41541E+04-2.91742E+04-1.85959E-10-8.02371E-11
 -1       717-3.38207E+04-4.12046E+05-2.55806E+04-2.62366E+04-3.70066E-10-1.11243E-10
 -1       718-3.56955E+04-4.22434E+05-2.71140E+04-2.24023E+04-3.02642E-10-8.99401E-11
 -1       719-3.74614E+04-4.34046E+05-2.87528E+04-1.75592E+04 1.11134E-10 4.94961E-11
 -1       720-3.91070E+04-4.46972E+05-3.04957E+04-1.15776E+04 2.88397E-10-1.43829E-11
 -1       721-4.06338E+04-4.61284E+05-3.23414E+04-4.30531E+03 3.65808E-10 4.49101E-11
 -1       722-4.20637E+04-4.77024E+05-3.42897E+04 4.44075E+03-3.24986E-10 1.21290E-11
 -1       723-4.34486E+04-4.94199E+05-3.63415E+04 1.48865E+04 2.77057E-10-4.13127E-11
 -1       724-4.48808E+04-5.12768E+05-3.85003E+04 2.73192E+04-4.57395E-10-3.15338E-11
 -1       725-4.65039E+04-5.32637E+05-4.07735E+04 4.21152E+04-3.11652E-10 9.02474E-12
 -1       726-4.85214E+04-5.53655E+05-4.31746E+04 5.97785E+04 1.66232E-10 1.95003E-11
 -1       727-5.11937E+04-5.75635E+05-4.57256E+04 8.09939E+04-1.03043E-10 9.97700E-11
 -1       728-5.48162E+04-5.98400E+05-4.84609E+04 1.06692E+05 8.13709E-10-9.91439E-11
 -1       729-5.96601E+04-6.21899E+05-5.14316E+04 1.38117E+05-3.06683E-10 1.49925E-10
 -1       730-6.58631E+04-6.46390E+05-5.47098E+04 1.76865E+05-3.32810E-11-5.45563E-11
 -1       731-7.26571E+04-6.89778E+05-6.00379E+04 2.01925E+05-4.16576E-10 1.73467E-10
 -1       801-2.51246E+03-3.17863E+05-3.60039E+04-3.47895E+03 8.04690E-10 5.58530E-11
 -1       802-4.66837E+03-3.24044E+05-3.19575E+04-6.55160E+03-2.25339E-09-4.68225E-10
 -1       803-8.50822E+03-3.29454E+05-2.95769E+04-1.20844E+04 3.51632E-10 1.47491E-10
 -1       804-1.18050E+04-3.34207E+05-2.80749E+04-1.64660E+04-7.15509E-11-4.61128E-11
 -1       805-1.47723E+04-3.38591E+05-2.71836E+04-1.99936E+04 5.51010E-10 1.72612E-10
 -1       806-1.75374E+04-3.42812E+05-2.67391E+04-2.28658E+04-3.86059E-10-1.48118E-10
 -1       807-2.01825E+04-3.47021E+05-2.66364E+04-2.52118E+04-3.53973E-10-1.94219E-11
 -1       808-2.27616E+04-3.51340E+05-2.68066E+04-2.71093E+04 8.37757E-11 4.41024E-11
 -1       809-2.53089E+04-3.55878E+05-2.72031E+04-2.85985E+04 4.47653E-10 1.68175E-10
 -1       810-2.78427E+04-3.60734E+05-2.77937E+04-2.96917E+04 7.87291E-11 5.44098E-12
 -1       811-3.03691E+04-3.66011E+05-2.85559E+04-3.03807E+04-1.62613E-10-9.73266E-12
 -1       812-3.28844E+04-3.71812E+05-2.94735E+04-3.06419E+04 5.70537E-10 1.72314E-10
 -1       813-3.53770E+04-3.78243E+05-3.05344E+04-3.04388E+04-5.57513E-11-7.45553E-11
 -1       814-3.78292E+04-3.85416E+05-3.17297E+04-2.97240E+04-6.57120E-11-1.23568E-11
 -1       815-4.02183E+04-3.93446E+05-3.30521E+04-2.84398E+04 1.66401E-10 1.21341E-10
 -1       816-4.25178E+04-4.02452E+05-3.44961E+04-2.65179E+04 4.18904E-10 1.00548E-10
 -1       817-4.46987E+04-4.12555E+05-3.60567E+04-2.38783E+04-3.33200E-10-9.84419E-11
 -1       818-4.67313E+04-4.23877E+05-3.77297E+04-2.04280E+04 7.16225E-11 1.85411E-11
 -1       819-4.85869E+04-4.36537E+05-3.95115E+04-1.60577E+04 2.64134E-10 1.45951E-10
 -1       820-5.02406E+04-4.50652E+05-4.13986E+04-1.06378E+04-5.54988E-10-2.20504E-10
 -1       821-5.16746E+04-4.66330E+05-4.33885E+04-4.01273E+03 9.08175E-11 5.22647E-11
 -1       822-5.28825E+04-4.83665E+05-4.54793E+04 4.00809E+03-2.68056E-10-8.27638E-12
 -1       823-5.38735E+04-5.02739E+05-4.76703E+04 1.36619E+04 7.39372E-11-1.37539E-10
 -1       824-5.46768E+04-5.23616E+05-4.99631E+04 2.52492E+04-1.13505E-10 3.76792E-11
 -1       825-5.53434E+04-5.46344E+05-5.23619E+04 3.91554E+04 6.53823E-10 7.99667E-11
 -1       826-5.59445E+04-5.70967E+05-5.48753E+04 5.58790E+04-3.41050E-10-8.06508E-11
 -1       827-5.65608E+04-5.97545E+05-5.75172E+04 7.60644E+04 3.42160E-11 1.67244E-10
 -1       828-5.72579E+04-6.26203E+05-6.03088E+04 1.00536E+05-3.48433E-10-1.02915E-10
 -1       829-5.80439E+04-6.57201E+05-6.32797E+04 1.30322E+05-1.20032E-10-5.84910E-11
 -1       830-5.88052E+04-6.91040E+05-6.64700E+04 1.66657E+05-4.78194E-10-1.13115E-11
 -1       831-6.27497E+04-7.42094E+05-7.16316E+04 1.90111E+05-2.12550E-10-1.27162E-10
 -1       901-3.40898E+03-3.08985E+05-4.91018E+04-3.03943E+03 6.26228E-10-3.04556E-11
 -1       902-6.18531E+03-3.16026E+05-4.35521E+04-5.74372E+03 1.26555E-09 3.81206E-10
 -1       903-1.12179E+04-3.22268E+05-4.02441E+04-1.06216E+04-1.06504E-09-2.14924E-10
 -1       904-1.54586E+04-3.27726E+05-3.81040E+04-1.45119E+04 5.38783E-10 9.95552E-11
 -1       905-1.92181E+04-3.32708E+05-3.67698E+04-1.76573E+04-5.34216E-10-1.21664E-10
 -1       906-2.26752E+04-3.37443E+05-3.60202E+04-2.02203E+04 3.50280E-11-7.15019E-11
 -1       907-2.59392E+04-3.42111E+05-3.57135E+04-2.23089E+04-3.84263E-10-9.38469E-11
 -1       908-2.90788E+04-3.46859E+05-3.57555E+04-2.39910E+04 6.64963E-10 1.38481E-10
 -1       909-3.21364E+04-3.51814E+05-3.60819E+04-2.53038E+04-3.19418E-10-1.65202E-12
 -1       910-3.51361E+04-3.57095E+05-3.66476E+04-2.62617E+04-5.82809E-11-1.69888E-10
 -1       911-3.80875E+04-3.62814E+05-3.74204E+04-2.68608E+04 2.96044E-10 3.55627E-11
 -1       912-4.09894E+04-3.69086E+05-3.83764E+04-2.70833E+04-3.35159E-10-5.88011E-11
 -1       913-4.38311E+04-3.76026E+05-3.94981E+04-2.68990E+04-5.66557E-10-1.75343E-10
 -1       914-4.65947E+04-3.83753E+05-4.07715E+04-2.62675E+04 4.29265E-10 1.05809E-10
 -1       915-4.92555E+04-3.92392E+05-4.21858E+04-2.51383E+04 2.95411E-10-2.95403E-11
 -1       916-5.17838E+04-4.02070E+05-4.37322E+04-2.34503E+04-1.88792E-10-7.62685E-12
 -1       917-5.41452E+04-4.12920E+05-4.54029E+04-2.11307E+04 1.11256E-10-1.38438E-11
 -1       918-5.63023E+04-4.25079E+05-4.71916E+04-1.80932E+04 1.64306E-10 4.88391E-11
 -1       919-5.82150E+04-4.38688E+05-4.90922E+04-1.42348E+04-3.06917E-10-1.96342E-10
 -1       920-5.98426E+04-4.53890E+05-5.10995E+04-9.43135E+03-2.27155E-10-2.26616E-11
 -1       921-6.11445E+04-4.70830E+05-5.32087E+04-3.53196E+03-6.96789E-11-1.80381E-13
 -1       922-6.20822E+04-4.89654E+05-5.54156E+04 3.64922E+03 2.31804E-10-1.25798E-11
 -1       923-6.26195E+04-5.10512E+05-5.77170E+04 1.23434E+04-2.74253E-10 2.80860E-11
 -1       924-6.27225E+04-5.33560E+05-6.01108E+04 2.28404E+04-1.95393E-10-7.64314E-11
 -1       925-6.23567E+04-5.58965E+05-6.25962E+04 3.55051E+04-1.08581E-09-2.07153E-10
 -1       926-6.14802E+04-5.86919E+05-6.51749E+04 5.07964E+04 8.37344E-10 2.13947E-10
 -1       927-6.00315E+04-6.17665E+05-6.78505E+04 6.92866E+04-3.27155E-10-1.09165E-10
 -1       928-5.79088E+04-6.51524E+05-7.06300E+04 9.16789E+04 6.97625E-10 6.84581E-11
 -1       929-5.49415E+04-6.88944E+05-7.35229E+04 1.18815E+05-2.14869E-10-3.65494E-11
 -1       930-5.08549E+04-7.30555E+05-7.65417E+04 1.51665E+05 1.10443E-09 1.04218E-10
 -1       931-5.22645E+04-7.87669E+05-8.14477E+04 1.72835E+05 2.21788E-11-5.84529E-11
 -1      1001-4.18088E+03-3.01286E+05-6.05642E+04-2.56922E+03-1.23806E-09-1.90639E-10
 -1      1002-7.48743E+03-3.09020E+05-5.37205E+04-4.86919E+03 5.01629E-10 2.78135E-11
 -1      1003-1.35425E+04-3.15950E+05-4.96080E+04-9.02207E+03-3.31237E-11-6.84481E-11
 -1      1004-1.85877E+04-3.22004E+05-4.69103E+04-1.23527E+04-2.51663E-10 3.06959E-11
 -1      1005-2.30172E+04-3.27503E+05-4.51857E+04-1.50559E+04-3.29249E-10-2.31705E-11
 -1      1006-2.70560E+04-3.32694E+05-4.41639E+04-1.72625E+04-6.17289E-12-3.69523E-11
 -1      1007-3.08389E+04-3.37773E+05-4.36716E+04-1.90597E+04-5.99046E-10-8.52326E-11
 -1      1008-3.44488E+04-3.42905E+05-4.35933E+04-2.05039E+04 1.35169E-10 6.38637E-12
 -1      1009-3.79361E+04-3.48233E+05-4.38497E+04-2.16274E+04-1.01189E-09-2.17767E-10
 -1      1010-4.13291E+04-3.53887E+05-4.43846E+04-2.24439E+04 3.19109E-10 1.06458E-10
 -1      1011-4.46403E+04-3.59993E+05-4.51576E+04-2.29520E+04-4.04255E-10-6.27195E-11
 -1      1012-4.78697E+04-3.66673E+05-4.61384E+04-2.31382E+04 6.03681E-10 1.59140E-10
 -1      1013-5.10070E+04-3.74052E+05-4.73043E+04-2.29785E+04-2.46971E-10-4.80889E-11
 -1      1014-5.40334E+04-3.82256E+05-4.86377E+04-2.24390E+04 1.14530E-10 1.16531E-12
 -1      1015-5.69222E+04-3.91419E+05-5.01242E+04-2.14768E+04-1.09447E-09-1.98647E-10
 -1      1016-5.96398E+04-4.01677E+05-5.17521E+04-2.00389E+04 6.54121E-10 1.11648E-10
 -1      1017-6.21465E+04-4.13176E+05-5.35116E+04-1.80613E+04-7.38655E-11 8.80782E-12
 -1      1018-6.43961E+04-4.26068E+05-5.53938E+04-1.54669E+04-5.95074E-10-9.70642E-11
 -1      1019-6.63370E+04-4.40513E+05-5.73908E+04-1.21627E+04-3.03038E-10-4.40614E-11
 -1      1020-6.79116E+04-4.56681E+05-5.94952E+04-8.03577E+03 3.75931E-11 3.22212E-12
 -1      1021-6.90562E+04-4.74751E+05-6.17000E+04-2.94776E+03-2.46654E-10-3.40307E-11
 -1      1022-6.97006E+04-4.94916E+05-6.39983E+04 3.27164E+03 6.94827E-10 3.49577E-11
 -1      1023-6.97657E+04-5.17385E+05-6.63836E+04 1.08333E+04-7.22840E-10-1.25087E-10
 -1      1024-6.91609E+04-5.42390E+05-6.88497E+04 1.99988E+04 5.89668E-10 6.92120E-11
 -1      1025-6.77783E+04-5.70193E+05-7.13904E+04 3.10921E+04-1.81587E-10-8.27045E-11
 -1      1026-6.54848E+04-6.01102E+05-7.39997E+04 4.45123E+04 1.42219E-10 6.56852E-11
 -1      1027-6.21097E+04-6.35484E+05-7.66715E+04 6.07449E+04-7.71852E-10-1.87480E-10
 -1      1028-5.74289E+04-6.73797E+05-7.93994E+04 8.03709E+04-3.60355E-10-2.76591E-11
 -1      1029-5.11454E+04-7.16611E+05-8.21759E+04 1.04069E+05 9.90218E-10 1.89597E-10
 -1      1030-4.28709E+04-7.64640E+05-8.49915E+04 1.32608E+05 2.42087E-10 4.04368E-11
 -1      1031-4.20960E+04-8.26615E+05-8.96182E+04 1.50977E+05 5.46528E-10 1.06763E-10
 -1      1101-4.82080E+03-2.94862E+05-7.01999E+04-2.07700E+03 3.16832E-10-2.52712E-11
 -1      1102-8.56485E+03-3.03142E+05-6.22840E+04-3.94565E+03 1.11713E-09 2.04998E-10
 -1      1103-1.54657E+04-3.10624E+05-5.75007E+04-7.32175E+03-7.40663E-10-1.13529E-10
 -1      1104-2.11740E+04-3.17164E+05-5.43354E+04-1.00411E+04 4.47027E-10 9.17578E-11
 -1      1105-2.61526E+04-3.23092E+05-5.22811E+04-1.22554E+04 1.01530E-09 1.75612E-10
 -1      1106-3.06657E+04-3.28666E+05-5.10273E+04-1.40661E+04 6.87171E-10 1.10969E-10
 -1      1107-3.48705E+04-3.34095E+05-5.03748E+04-1.55415E+04-1.58323E-10-2.97177E-11
 -1      1108-3.88623E+04-3.39555E+05-5.01905E+04-1.67262E+04-3.61014E-10-7.72671E-11
 -1      1109-4.26988E+04-3.45200E+05-5.03825E+04-1.76461E+04 1.07036E-10 2.39610E-11
 -1      1110-4.64122E+04-3.51170E+05-5.08858E+04-1.83130E+04 7.30567E-10 1.03388E-10
 -1      1111-5.00170E+04-3.57601E+05-5.16531E+04-1.87268E+04-2.02998E-10 3.36476E-11
 -1      1112-5.35140E+04-3.64623E+05-5.26489E+04-1.88775E+04-2.25744E-10-1.30021E-10
 -1      1113-5.68928E+04-3.72367E+05-5.38464E+04-1.87462E+04 6.08327E-10 1.49946E-10
 -1      1114-6.01333E+04-3.80969E+05-5.52245E+04-1.83060E+04 5.61061E-10 9.92145E-11
 -1      1115-6.32066E+04-3.90568E+05-5.67662E+04-1.75215E+04-2.62041E-10-8.74252E-11
 -1      1116-6.60753E+04-4.01312E+05-5.84575E+04-1.63491E+04-6.23066E-12 9.23957E-12
 -1      1117-6.86940E+04-4.13355E+05-6.02863E+04-1.47351E+04 4.06503E-11-1.01213E-11
 -1      1118-7.10085E+04-4.26865E+05-6.22420E+04-1.26142E+04 2.90948E-10-3.53178E-11
 -1      1119-7.29556E+04-4.42019E+05-6.43146E+04-9.90713E+03-1.48627E-10 3.39607E-11
 -1      1120-7.44622E+04-4.59010E+05-6.64948E+04-6.51710E+03 3.91366E-10 1.07571E-10
 -1      1121-7.54432E+04-4.78049E+05-6.87733E+04-2.32539E+03 1.20252E-10 6.60522E-11
 -1      1122-7.57999E+04-4.99368E+05-7.11408E+04 2.81396E+03-1.41709E-10-7.88358E-11
 -1      1123-7.54161E+04-5.23223E+05-7.35874E+04 9.08065E+03 8.40020E-10 1.70506E-10
 -1      1124-7.41537E+04-5.49909E+05-7.61028E+04 1.66956E+04-9.88508E-10-8.27086E-11
 -1      1125-7.18459E+04-5.79760E+05-7.86755E+04 2.59288E+04 6.23909E-10 9.81427E-11
 -1      1126-6.82884E+04-6.13166E+05-8.12927E+04 3.71077E+04-6.17151E-10-7.98006E-11
 -1      1127-6.32289E+04-6.50590E+05-8.39396E+04 5.06245E+04 4.01686E-10 7.71115E-11
 -1      1128-5.63537E+04-6.92581E+05-8.65988E+04 6.69406E+04 7.73677E-12-1.51727E-11
 -1      1129-4.72742E+04-7.39793E+05-8.92490E+04 8.65885E+04 2.24117E-11-7.55213E-13
 -1      1130-3.55152E+04-7.93004E+05-9.18641E+04 1.10168E+05-4.75173E-10-1.01710E-10
 -1      1131-3.29270E+04-8.58848E+05-9.62272E+04 1.25333E+05 5.04201E-10 5.29318E-11
 -1      1201-5.32344E+03-2.89790E+05-7.78537E+04-1.56940E+03-5.58014E-10 3.63302E-11
 -1      1202-9.41002E+03-2.98482E+05-6.90963E+04-2.98686E+03-5.19163E-10-1.60566E-10
 -1      1203-1.69745E+04-3.06386E+05-6.37840E+04-5.54865E+03 8.11782E-10 1.62994E-10
 -1      1204-2.32018E+04-3.13302E+05-6.02481E+04-7.61875E+03-1.06821E-10-5.29266E-11
 -1      1205-2.86087E+04-3.19567E+05-5.79312E+04-9.30858E+03-3.76191E-10-6.14145E-11
 -1      1206-3.34902E+04-3.25445E+05-5.64915E+04-1.06927E+04 8.90158E-11 2.40321E-11
 -1      1207-3.80216E+04-3.31153E+05-5.57093E+04-1.18214E+04 2.76246E-10 4.08592E-11
 -1      1208-4.23088E+04-3.36875E+05-5.54379E+04-1.27274E+04-9.77258E-11-7.93453E-11
 -1      1209-4.64153E+04-3.42774E+05-5.55757E+04-1.34304E+04 2.81945E-10 7.81308E-11
 -1      1210-5.03767E+04-3.48998E+05-5.60505E+04-1.39394E+04 3.16617E-10 5.27286E-11
 -1      1211-5.42090E+04-3.55687E+05-5.68098E+04-1.42548E+04 3.30752E-10 3.80152E-11
 -1      1212-5.79136E+04-3.62980E+05-5.78141E+04-1.43693E+04-8.20562E-10-1.15433E-10
 -1      1213-6.14796E+04-3.71013E+05-5.90332E+04-1.42691E+04 1.35181E-10 1.91663E-11
 -1      1214-6.48857E+04-3.79929E+05-6.04435E+04-1.39338E+04-1.99350E-10-1.62805E-11
 -1      1215-6.81007E+04-3.89873E+05-6.20258E+04-1.33365E+04-2.37245E-11-2.49887E-11
 -1      1216-7.10838E+04-4.01000E+05-6.37642E+04-1.24434E+04-4.67048E-10-1.89330E-11
 -1      1217-7.37845E+04-4.13476E+05-6.56449E+04-1.12128E+04 9.43556E-11 3.00478E-11
 -1      1218-7.61414E+04-4.27479E+05-6.76555E+04-9.59368E+03 5.27033E-10 1.85003E-10
 -1      1219-7.80816E+04-4.43201E+05-6.97847E+04-7.52351E+03-1.38192E-10-3.34701E-11
 -1      1220-7.95182E+04-4.60856E+05-7.20213E+04-4.92597E+03-9.87544E-11-9.44852E-11
 -1      1221-8.03485E+04-4.80677E+05-7.43541E+04-1.70737E+03 1.77929E-10 7.03327E-12
 -1      1222-8.04504E+04-5.02928E+05-7.67714E+04 2.24715E+03-5.22651E-10-1.97838E-10
 -1      1223-7.96780E+04-5.27904E+05-7.92606E+04 7.07832E+03 1.70338E-10 4.47937E-11
 -1      1224-7.78561E+04-5.55944E+05-8.18077E+04 1.29578E+04-2.62960E-10 8.97881E-11
 -1      1225-7.47730E+04-5.87437E+05-8.43968E+04 2.00936E+04 8.09248E-11-6.90937E-11
 -1      1226-7.01721E+04-6.22833E+05-8.70095E+04 2.87353E+04-5.94301E-10-1.58657E-11
 -1      1227-6.37415E+04-6.62659E+05-8.96239E+04 3.91781E+04 8.51014E-10 8.82142E-11
 -1      1228-5.51034E+04-7.07530E+05-9.22140E+04 5.17670E+04-4.90629E-10-8.39592E-11
 -1      1229-4.38022E+04-7.58161E+05-9.47482E+04 6.68972E+04-5.58426E-10-7.02938E-11
 -1      1230-2.92955E+04-8.15382E+05-9.71883E+04 8.50152E+04-4.49144E-10-2.21614E-11
 -1      1231-2.52799E+04-8.84194E+05-1.01327E+05 9.66605E+04 4.23775E-10 8.17361E-11
 -1      1301-5.68495E+03-2.86127E+05-8.34058E+04-1.05147E+03 5.32445E-10 2.17808E-10
 -1      1302-1.00174E+04-2.95108E+05-7.40436E+04-2.00379E+03 2.28705E-11 1.43795E-11
 -1      1303-1.80589E+04-3.03309E+05-6.83496E+04-3.72524E+03-4.69108E-11-3.43237E-11
 -1      1304-2.46590E+04-3.10492E+05-6.45456E+04-5.11937E+03-1.96565E-10 2.99829E-11
 -1      1305-3.03726E+04-3.16998E+05-6.20379E+04-6.25945E+03-4.79602E-10-3.17703E-12
 -1      1306-3.55171E+04-3.23096E+05-6.04625E+04-7.19445E+03 5.45342E-10 3.58182E-11
 -1      1307-4.02811E+04-3.29007E+05-5.95851E+04-7.95739E+03 5.11260E-10 8.89909E-11
 -1      1308-4.47784E+04-3.34921E+05-5.92490E+04-8.56989E+03 2.00871E-10 8.06963E-12
 -1      1309-4.90769E+04-3.41005E+05-5.93458E+04-9.04499E+03 1.78475E-10 1.31391E-13
 -1      1310-5.32147E+04-3.47413E+05-5.97983E+04-9.38881E+03-4.19767E-10-7.76180E-11
 -1      1311-5.72090E+04-3.54290E+05-6.05501E+04-9.60171E+03-5.57483E-10-1.73760E-11
 -1      1312-6.10614E+04-3.61779E+05-6.15587E+04-9.67901E+03 2.80896E-10 2.59875E-11
 -1      1313-6.47606E+04-3.70022E+05-6.27918E+04-9.61148E+03-7.17128E-10-1.28592E-10
 -1      1314-6.82842E+04-3.79164E+05-6.42237E+04-9.38548E+03-1.36686E-10-2.20694E-11
 -1      1315-7.15992E+04-3.89358E+05-6.58337E+04-8.98284E+03 3.24879E-10 3.10494E-11
 -1      1316-7.46621E+04-4.00764E+05-6.76045E+04-8.38057E+03-9.68343E-11 1.55515E-11
 -1      1317-7.74182E+04-4.13554E+05-6.95210E+04-7.55008E+03 1.22803E-10 1.21783E-11
 -1      1318-7.98007E+04-4.27916E+05-7.15698E+04-6.45632E+03-4.17484E-10-3.65640E-11
 -1      1319-8.17288E+04-4.44054E+05-7.37381E+04-5.05622E+03 3.35095E-10-1.86365E-11
 -1      1320-8.31058E+04-4.62194E+05-7.60135E+04-3.29709E+03-1.80936E-10 3.15366E-11
 -1      1321-8.38153E+04-4.82590E+05-7.83833E+04-1.11430E+03-2.43983E-10-6.15103E-11
 -1      1322-8.37182E+04-5.05526E+05-8.08340E+04 1.57117E+03-1.33060E-10 1.15775E-10
 -1      1323-8.26470E+04-5.31325E+05-8.33507E+04 4.85583E+03 1.79184E-10-5.54538E-11
 -1      1324-8.04001E+04-5.60357E+05-8.59168E+04 8.85672E+03 2.24733E-10 3.38115E-11
 -1      1325-7.67348E+04-5.93048E+05-8.85129E+04 1.37148E+04-3.20127E-10 2.12985E-11
 -1      1326-7.13581E+04-6.29889E+05-9.11165E+04 1.95980E+04 3.80005E-10 7.66154E-12
 -1      1327-6.39179E+04-6.71449E+05-9.37008E+04 2.67038E+04 1.58466E-10-9.45980E-12
 -1      1328-5.39926E+04-7.18387E+05-9.62335E+04 3.52615E+04 5.62652E-12 5.54508E-11
 -1      1329-4.10807E+04-7.71461E+05-9.86760E+04 4.55337E+04-1.37814E-10-1.01443E-11
 -1      1330-2.45904E+04-8.31542E+05-1.00982E+05 5.78180E+04-2.03624E-11-3.67045E-11
 -1      1331-1.95456E+04-9.02464E+05-1.04952E+05 6.57107E+04 3.51479E-10 2.54829E-10
 -1      1401-5.90282E+03-2.83914E+05-8.67710E+04-5.27229E+02-2.86182E-10 9.04431E-12
 -1      1402-1.03833E+04-2.93065E+05-7.70446E+04-1.00554E+03-4.52535E-10-5.67976E-11
 -1      1403-1.87123E+04-3.01443E+05-7.11201E+04-1.87023E+03-2.90037E-10-7.01475E-11
 -1      1404-2.55368E+04-3.08786E+05-6.71538E+04-2.57142E+03-2.04780E-10 4.29355E-11
 -1      1405-3.14347E+04-3.15437E+05-6.45304E+04-3.14545E+03 3.25414E-10 7.79607E-12
 -1      1406-3.67371E+04-3.21667E+05-6.28725E+04-3.61659E+03-5.30769E-10-3.93128E-11
 -1      1407-4.16405E+04-3.27701E+05-6.19369E+04-4.00120E+03-6.11660E-10-2.21767E-11
 -1      1408-4.62635E+04-3.33731E+05-6.15611E+04-4.31002E+03-5.27162E-11 3.98034E-11
 -1      1409-5.06768E+04-3.39928E+05-6.16325E+04-4.54955E+03-8.47053E-11 5.73153E-11
 -1      1410-5.49201E+04-3.46448E+05-6.20707E+04-4.72285E+03-1.74685E-10-3.20269E-11
 -1      1411-5.90113E+04-3.53440E+05-6.28172E+04-4.83014E+03-3.71412E-10-2.73644E-11
 -1      1412-6.29521E+04-3.61048E+05-6.38278E+04-4.86911E+03-1.01991E-10-4.90436E-11
 -1      1413-6.67310E+04-3.69418E+05-6.50686E+04-4.83514E+03 3.33091E-10 6.94390E-11
 -1      1414-7.03248E+04-3.78697E+05-6.65129E+04-4.72140E+03-6.43131E-10-4.36724E-11
 -1      1415-7.36992E+04-3.89042E+05-6.81391E+04-4.51871E+03 1.17741E-11 2.45909E-12
 -1      1416-7.68091E+04-4.00617E+05-6.99288E+04-4.21544E+03-4.18725E-10-1.86822E-11
 -1      1417-7.95971E+04-4.13598E+05-7.18664E+04-3.79706E+03-6.52269E-10-1.78035E-11
 -1      1418-8.19929E+04-4.28178E+05-7.39375E+04-3.24573E+03-1.47111E-10-8.38470E-11
 -1      1419-8.39109E+04-4.44569E+05-7.61288E+04-2.53947E+03-1.26931E-10 8.96701E-11
 -1      1420-8.52480E+04-4.63006E+05-7.84269E+04-1.65144E+03-1.37705E-10-6.34358E-12
 -1      1421-8.58796E+04-4.83753E+05-8.08181E+04-5.48646E+02-3.47688E-10-4.21573E-11
 -1      1422-8.56561E+04-5.07108E+05-8.32878E+04 8.09119E+02-2.25320E-10-3.51321E-11
 -1      1423-8.43972E+04-5.33409E+05-8.58199E+04 2.47087E+03-8.01542E-11-3.60564E-11
 -1      1424-8.18855E+04-5.63046E+05-8.83958E+04 4.49591E+03-4.34079E-10-7.78327E-12
 -1      1425-7.78597E+04-5.96465E+05-9.09942E+04 6.95527E+03-1.35231E-10-5.15722E-12
 -1      1426-7.20058E+04-6.34182E+05-9.35901E+04 9.93339E+03-2.92505E-10 1.32872E-11
 -1      1427-6.39484E+04-6.76790E+05-9.61536E+04 1.35291E+04-6.98985E-10-3.22762E-11
 -1      1428-5.32403E+04-7.24972E+05-9.86488E+04 1.78571E+04 4.27519E-10 5.21773E-11
 -1      1429-3.93526E+04-7.79514E+05-1.01033E+05 2.30484E+04-2.95724E-10-7.45535E-11
 -1      1430-2.16634E+04-8.41311E+05-1.03254E+05 2.92521E+04 5.07698E-10 6.69552E-11
 -1      1431-1.59971E+04-9.13497E+05-1.07119E+05 3.32371E+04-1.66577E-10-2.06822E-11
 -1      1501-5.97560E+03-2.83174E+05-8.78984E+04-3.04589E+03 4.46097E-11-9.40619E-11
 -1      1502-1.05055E+04-2.92381E+05-7.80503E+04-3.06518E+03 2.91472E-10-9.16557E-12
 -1      1503-1.89305E+04-3.00818E+05-7.20488E+04-3.12738E+03-2.16033E-10 9.44293E-11
 -1      1504-2.58299E+04-3.08214E+05-6.80281E+04-3.22128E+03 2.02799E-09 6.19337E-12
 -1      1505-3.17894E+04-3.14913E+05-6.53660E+04-3.34014E+03-3.50094E-10-5.76581E-11
 -1      1506-3.71444E+04-3.21188E+05-6.36803E+04-3.47961E+03-7.03409E-10 1.03261E-10
 -1      1507-4.20943E+04-3.27263E+05-6.27252E+04-3.63678E+03 1.24003E-09 6.10914E-12
 -1      1508-4.67591E+04-3.33332E+05-6.23360E+04-3.80956E+03-6.86184E-10-2.03057E-11
 -1      1509-5.12106E+04-3.39567E+05-6.23988E+04-3.99629E+03 7.13922E-10 4.36566E-12
 -1      1510-5.54890E+04-3.46125E+05-6.28322E+04-4.19557E+03-8.23719E-10 3.14080E-11
 -1      1511-5.96125E+04-3.53154E+05-6.35768E+04-4.40605E+03 9.82390E-10 9.60058E-12
 -1      1512-6.35827E+04-3.60802E+05-6.45879E+04-4.62644E+03-2.44888E-10 2.43097E-11
 -1      1513-6.73881E+04-3.69214E+05-6.58312E+04-4.85529E+03-1.03854E-09-2.69938E-11
 -1      1514-7.10052E+04-3.78540E+05-6.72796E+04-5.09107E+03 2.85994E-10 5.73333E-12
 -1      1515-7.43994E+04-3.88936E+05-6.89110E+04-5.33196E+03 5.50390E-11 1.00746E-10
 -1      1516-7.75247E+04-4.00567E+05-7.07070E+04-5.57590E+03-3.95844E-10-1.92113E-11
 -1      1517-8.03231E+04-4.13612E+05-7.26515E+04-5.82036E+03 3.41038E-10-8.87049E-11
 -1      1518-8.27230E+04-4.28266E+05-7.47300E+04-6.06230E+03-3.44793E-10-5.42278E-11
 -1      1519-8.46371E+04-4.44742E+05-7.69288E+04-6.29792E+03 1.38248E-10 1.44528E-10
 -1      1520-8.59602E+04-4.63278E+05-7.92344E+04-6.52250E+03-2.51846E-10-1.44993E-10
 -1      1521-8.65650E+04-4.84143E+05-8.16326E+04-6.73010E+03 6.95209E-10 1.15427E-11
 -1      1522-8.62982E+04-5.07639E+05-8.41085E+04-6.91324E+03-4.95068E-10-5.51283E-11
 -1      1523-8.49753E+04-5.34109E+05-8.66454E+04-7.06255E+03 2.60282E-11 1.06432E-11
 -1      1524-8.23736E+04-5.63949E+05-8.92244E+04-7.16633E+03 3.03432E-10-3.44588E-12
 -1      1525-7.82258E+04-5.97613E+05-9.18233E+04-7.21018E+03 6.24928E-10 1.45887E-11
 -1      1526-7.22111E+04-6.35623E+05-9.44162E+04-7.17647E+03 5.25987E-10-9.63957E-12
 -1      1527-6.39460E+04-6.78581E+05-9.69723E+04-7.04396E+03-7.12175E-10-3.00943E-11
 -1      1528-5.29753E+04-7.27179E+05-9.94545E+04-6.78739E+03 3.54834E-10-5.73742E-12
 -1      1529-3.87608E+04-7.82210E+05-1.01819E+05-6.37706E+03 1.37583E-10 2.49500E-11
 -1      1530-2.06705E+04-8.44580E+05-1.04011E+05-5.77837E+03-8.65226E-10 7.43383E-11
 -1      1531-1.47962E+04-9.17187E+05-1.07841E+05-5.10081E+03 4.30987E-10-1.77964E-10
 -3
    1PSTEP                        17           9           1          
  100CL  109 9.00000E-01         496                     0    9           1
 -4  DISP        4    1
 -5  D1          1    2    1    0
 -5  D2          1    2    2    0
 -5  D3          1    2    3    0
 -5  ALL         1    2    0    0    1ALL
 -1         1 1.73811E-08 1.03172E-07 1.06425E-24
 -1         2 1.81133E-08 1.04633E-07 1.10908E-24
 -1         3 1.91139E-08 1.06009E-07 1.17035E-24
 -1         4 2.03167E-08 1.07327E-07 1.24400E-24
 -1         5 2.16912E-08 1.08610E-07 1.32816E-24
 -1         6 2.32237E-08 1.09890E-07 1.42200E-24
 -1         7 2.49081E-08 1.11198E-07 1.52513E-24
 -1         8 2.67423E-08 1.12569E-07 1.63744E-24
 -1         9 2.87260E-08 1.14039E-07 1.75890E-24
 -1        10 3.08600E-08 1.15647E-07 1.88957E-24
 -1        11 3.31453E-08 1.17433E-07 2.02949E-24
 -1        12 3.55824E-08 1.19438E-07 2.17872E-24
 -1        13 3.81716E-08 1.21705E-07 2.33726E-24
 -1        14 4.09115E-08 1.24283E-07 2.50503E-24
 -1        15 4.37995E-08 1.27220E-07 2.68186E-24
 -1        16 4.68304E-08 1.30567E-07 2.86744E-24
 -1        17 4.99963E-08 1.34380E-07 3.06129E-24
 -1        18 5.32856E-08 1.38715E-07 3.26269E-24
 -1        19 5.66819E-08 1.43632E-07 3.47065E-24
 -1        20 6.01630E-08 1.49189E-07 3.68380E-24
 -1        21 6.36997E-08 1.55445E-07 3.90035E-24
 -1        22 6.72541E-08 1.62454E-07 4.11799E-24
 -1        23 7.07781E-08 1.70264E-07 4.33376E-24
 -1        24 7.42118E-08 1.78909E-07 4.54401E-24
 -1        25 7.74822E-08 1.88400E-07 4.74426E-24
 -1        26 8.05028E-08 1.98714E-07 4.92921E-24
 -1        27 8.31753E-08 2.09773E-07 5.09285E-24
 -1        28 8.53955E-08 2.21413E-07 5.22879E-24
 -1        29 8.70686E-08 2.33333E-07 5.33124E-24
 -1        30 8.81430E-08 2.45014E-07 5.39702E-24
 -1        31 8.87112E-08 2.55790E-07 5.43181E-24
 -1       101 1.27201E-08 9.07744E-08 7.78858E-25
 -1       102 1.36233E-08 9.22726E-08 8.34160E-25
 -1       103 1.46653E-08 9.36389E-08 8.97958E-25
 -1       104 1.58219E-08 9.49075E-08 9.68778E-25
 -1       105 1.70741E-08 9.61152E-08 1.04545E-24
 -1       106 1.84075E-08 9.72991E-08 1.12710E-24
 -1       107 1.98117E-08 9.84963E-08 1.21308E-24
 -1       108 2.12794E-08 9.97445E-08 1.30295E-24
 -1       109 2.28051E-08 1.01082E-07 1.39636E-24
 -1       110 2.43842E-08 1.02549E-07 1.49305E-24
 -1       111 2.60125E-08 1.04187E-07 1.59276E-24
 -1       112 2.76858E-08 1.06039E-07 1.69521E-24
 -1       113 2.93993E-08 1.08151E-07 1.80013E-24
 -1       114 3.11472E-08 1.10572E-07 1.90716E-24
 -1       115 3.29232E-08 1.13352E-07 2.01590E-24
 -1       116 3.47193E-08 1.16547E-07 2.12587E-24
 -1       117 3.65265E-08 1.20215E-07 2.23653E-24
 -1       118 3.83346E-08 1.24416E-07 2.34724E-24
 -1       119 4.01320E-08 1.29212E-07 2.45729E-24
 -1       120 4.19062E-08 1.34670E-07 2.56593E-24
 -1       121 4.36442E-08 1.40852E-07 2.67235E-24
 -1       122 4.53329E-08 1.47822E-07 2.77575E-24
 -1       123 4.69601E-08 1.55634E-07 2.87538E-24
 -1       124 4.85158E-08 1.64335E-07 2.97064E-24
 -1       125 4.99932E-08 1.73951E-07 3.06110E-24
 -1       126 5.13894E-08 1.84480E-07 3.14659E-24
 -1       127 5.27054E-08 1.95881E-07 3.22717E-24
 -1       128 5.39412E-08 2.08050E-07 3.30284E-24
 -1       129 5.50825E-08 2.20799E-07 3.37272E-24
 -1       130 5.60676E-08 2.33818E-07 3.43304E-24
 -1       131 5.67803E-08 2.46309E-07 3.47668E-24
 -1       201 1.11207E-08 8.28324E-08 6.80925E-25
 -1       202 1.18084E-08 8.43861E-08 7.23033E-25
 -1       203 1.26794E-08 8.57769E-08 7.76366E-25
 -1       204 1.36688E-08 8.70448E-08 8.36946E-25
 -1       205 1.47449E-08 8.82400E-08 9.02836E-25
 -1       206 1.58893E-08 8.94044E-08 9.72907E-25
 -1       207 1.70898E-08 9.05758E-08 1.04641E-24
 -1       208 1.83378E-08 9.17910E-08 1.12283E-24
 -1       209 1.96270E-08 9.30863E-08 1.20177E-24
 -1       210 2.09523E-08 9.44986E-08 1.28292E-24
 -1       211 2.23095E-08 9.60663E-08 1.36602E-24
 -1       212 2.36946E-08 9.78291E-08 1.45083E-24
 -1       213 2.51037E-08 9.98291E-08 1.53711E-24
 -1       214 2.65326E-08 1.02111E-07 1.62460E-24
 -1       215 2.79766E-08 1.04720E-07 1.71302E-24
 -1       216 2.94309E-08 1.07709E-07 1.80206E-24
 -1       217 3.08897E-08 1.11128E-07 1.89139E-24
 -1       218 3.23471E-08 1.15033E-07 1.98062E-24
 -1       219 3.37967E-08 1.19483E-07 2.06938E-24
 -1       220 3.52317E-08 1.24538E-07 2.15725E-24
 -1       221 3.66455E-08 1.30257E-07 2.24381E-24
 -1       222 3.80316E-08 1.36702E-07 2.32868E-24
 -1       223 3.93840E-08 1.43931E-07 2.41149E-24
 -1       224 4.06972E-08 1.51997E-07 2.49190E-24
 -1       225 4.19658E-08 1.60944E-07 2.56958E-24
 -1       226 4.31823E-08 1.70806E-07 2.64407E-24
 -1       227 4.43331E-08 1.81602E-07 2.71453E-24
 -1       228 4.53873E-08 1.93335E-07 2.77908E-24
 -1       229 4.62724E-08 2.06006E-07 2.83327E-24
 -1       230 4.68143E-08 2.19653E-07 2.86646E-24
 -1       231 4.64250E-08 2.34648E-07 2.84262E-24
 -1       301 9.17977E-09 7.50679E-08 5.62081E-25
 -1       302 9.84986E-09 7.67171E-08 6.03110E-25
 -1       303 1.06166E-08 7.81119E-08 6.50058E-25
 -1       304 1.14697E-08 7.93660E-08 7.02294E-25
 -1       305 1.23889E-08 8.05368E-08 7.58576E-25
 -1       306 1.33591E-08 8.16701E-08 8.17981E-25
 -1       307 1.43695E-08 8.28046E-08 8.79850E-25
 -1       308 1.54122E-08 8.39759E-08 9.43696E-25
 -1       309 1.64812E-08 8.52183E-08 1.00915E-24
 -1       310 1.75717E-08 8.65663E-08 1.07592E-24
 -1       311 1.86799E-08 8.80549E-08 1.14377E-24
 -1       312 1.98022E-08 8.97206E-08 1.21250E-24
 -1       313 2.09358E-08 9.16016E-08 1.28190E-24
 -1       314 2.20775E-08 9.37381E-08 1.35182E-24
 -1       315 2.32247E-08 9.61729E-08 1.42205E-24
 -1       316 2.43742E-08 9.89510E-08 1.49244E-24
 -1       317 2.55232E-08 1.02120E-07 1.56279E-24
 -1       318 2.66687E-08 1.05732E-07 1.63293E-24
 -1       319 2.78078E-08 1.09838E-07 1.70268E-24
 -1       320 2.89375E-08 1.14495E-07 1.77185E-24
 -1       321 3.00550E-08 1.19760E-07 1.84028E-24
 -1       322 3.11574E-08 1.25692E-07 1.90778E-24
 -1       323 3.22413E-08 1.32349E-07 1.97414E-24
 -1       324 3.33021E-08 1.39791E-07 2.03910E-24
 -1       325 3.43326E-08 1.48075E-07 2.10219E-24
 -1       326 3.53188E-08 1.57259E-07 2.16258E-24
 -1       327 3.62346E-08 1.67402E-07 2.21865E-24
 -1       328 3.70289E-08 1.78574E-07 2.26729E-24
 -1       329 3.76037E-08 1.90880E-07 2.30249E-24
 -1       330 3.77651E-08 2.04525E-07 2.31237E-24
 -1       331 3.71934E-08 2.19947E-07 2.27737E-24
 -1       401 7.15495E-09 6.75863E-08 4.38100E-25
 -1       402 7.80035E-09 6.92522E-08 4.77618E-25
 -1       403 8.50342E-09 7.06445E-08 5.20667E-25
 -1       404 9.25119E-09 7.18735E-08 5.66453E-25
 -1       405 1.00367E-08 7.30095E-08 6.14551E-25
 -1       406 1.08520E-08 7.41013E-08 6.64472E-25
 -1       407 1.16901E-08 7.51884E-08 7.15788E-25
 -1       408 1.25452E-08 7.63055E-08 7.68145E-25
 -1       409 1.34125E-08 7.74850E-08 8.21254E-25
 -1       410 1.42884E-08 7.87589E-08 8.74884E-25
 -1       411 1.51697E-08 8.01594E-08 9.28842E-25
 -1       412 1.60537E-08 8.17196E-08 9.82973E-25
 -1       413 1.69384E-08 8.34741E-08 1.03714E-24
 -1       414 1.78220E-08 8.54594E-08 1.09125E-24
 -1       415 1.87030E-08 8.77138E-08 1.14519E-24
 -1       416 1.95801E-08 9.02783E-08 1.19890E-24
 -1       417 2.04523E-08 9.31961E-08 1.25230E-24
 -1       418 2.13190E-08 9.65134E-08 1.30537E-24
 -1       419 2.21794E-08 1.00279E-07 1.35805E-24
 -1       420 2.30333E-08 1.04543E-07 1.41034E-24
 -1       421 2.38802E-08 1.09361E-07 1.46219E-24
 -1       422 2.47192E-08 1.14789E-07 1.51357E-24
 -1       423 2.55485E-08 1.20887E-07 1.56434E-24
 -1       424 2.63638E-08 1.27716E-07 1.61426E-24
 -1       425 2.71566E-08 1.35343E-07 1.66281E-24
 -1       426 2.79105E-08 1.43841E-07 1.70897E-24
 -1       427 2.85956E-08 1.53294E-07 1.75092E-24
 -1       428 2.91592E-08 1.63809E-07 1.78543E-24
 -1       429 2.95122E-08 1.75538E-07 1.80704E-24
 -1       430 2.95144E-08 1.88716E-07 1.80717E-24
 -1       431 2.89626E-08 2.03733E-07 1.77339E-24
 -1       501 5.12586E-09 6.03893E-08 3.13858E-25
 -1       502 5.75009E-09 6.20178E-08 3.52080E-25
 -1       503 6.39552E-09 6.33775E-08 3.91600E-25
 -1       504 7.05546E-09 6.45679E-08 4.32008E-25
 -1       505 7.72648E-09 6.56581E-08 4.73095E-25
 -1       506 8.40579E-09 6.66985E-08 5.14689E-25
 -1       507 9.09020E-09 6.77285E-08 5.56596E-25
 -1       508 9.77654E-09 6.87817E-08 5.98621E-25
 -1       509 1.04619E-08 6.98888E-08 6.40587E-25
 -1       510 1.11439E-08 7.10794E-08 6.82342E-25
 -1       511 1.18203E-08 7.23830E-08 7.23761E-25
 -1       512 1.24897E-08 7.38295E-08 7.64747E-25
 -1       513 1.31508E-08 7.54502E-08 8.05227E-25
 -1       514 1.38029E-08 7.72776E-08 8.45157E-25
 -1       515 1.44458E-08 7.93465E-08 8.84518E-25
 -1       516 1.50794E-08 8.16934E-08 9.23316E-25
 -1       517 1.57044E-08 8.43575E-08 9.61583E-25
 -1       518 1.63215E-08 8.73803E-08 9.99373E-25
 -1       519 1.69322E-08 9.08063E-08 1.03676E-24
 -1       520 1.75376E-08 9.46827E-08 1.07383E-24
 -1       521 1.81392E-08 9.90602E-08 1.11067E-24
 -1       522 1.87378E-08 1.03993E-07 1.14732E-24
 -1       523 1.93328E-08 1.09540E-07 1.18376E-24
 -1       524 1.99214E-08 1.15763E-07 1.21979E-24
 -1       525 2.04961E-08 1.22735E-07 1.25498E-24
 -1       526 2.10424E-08 1.30537E-07 1.28843E-24
 -1       527 2.15343E-08 1.39264E-07 1.31855E-24
 -1       528 2.19294E-08 1.49039E-07 1.34275E-24
 -1       529 2.21624E-08 1.60025E-07 1.35701E-24
 -1       530 2.21405E-08 1.72448E-07 1.35567E-24
 -1       531 2.17470E-08 1.86632E-07 1.33158E-24
 -1       601 3.15163E-09 5.34679E-08 1.92975E-25
 -1       602 3.75520E-09 5.50188E-08 2.29932E-25
 -1       603 4.34801E-09 5.63167E-08 2.66230E-25
 -1       604 4.92950E-09 5.74496E-08 3.01835E-25
 -1       605 5.50002E-09 5.84812E-08 3.36768E-25
 -1       606 6.05972E-09 5.94596E-08 3.71039E-25
 -1       607 6.60818E-09 6.04229E-08 4.04621E-25
 -1       608 7.14448E-09 6.14031E-08 4.37459E-25
 -1       609 7.66751E-09 6.24289E-08 4.69484E-25
 -1       610 8.17618E-09 6.35277E-08 5.00630E-25
 -1       611 8.66960E-09 6.47261E-08 5.30842E-25
 -1       612 9.14720E-09 6.60512E-08 5.60086E-25
 -1       613 9.60879E-09 6.75310E-08 5.88349E-25
 -1       614 1.00546E-08 6.91945E-08 6.15647E-25
 -1       615 1.04854E-08 7.10726E-08 6.42023E-25
 -1       616 1.09023E-08 7.31981E-08 6.67553E-25
 -1       617 1.13072E-08 7.56059E-08 6.92343E-25
 -1       618 1.17022E-08 7.83336E-08 7.16528E-25
 -1       619 1.20899E-08 8.14212E-08 7.40271E-25
 -1       620 1.24734E-08 8.49123E-08 7.63748E-25
 -1       621 1.28554E-08 8.88537E-08 7.87139E-25
 -1       622 1.32385E-08 9.32967E-08 8.10598E-25
 -1       623 1.36242E-08 9.82977E-08 8.34214E-25
 -1       624 1.40118E-08 1.03920E-07 8.57948E-25
 -1       625 1.43973E-08 1.10234E-07 8.81552E-25
 -1       626 1.47712E-08 1.17323E-07 9.04445E-25
 -1       627 1.51162E-08 1.25289E-07 9.25573E-25
 -1       628 1.54048E-08 1.34253E-07 9.43241E-25
 -1       629 1.55966E-08 1.44374E-07 9.54985E-25
 -1       630 1.56389E-08 1.55856E-07 9.57572E-25
 -1       631 1.54708E-08 1.68964E-07 9.47282E-25
 -1       701 1.27715E-09 4.68075E-08 7.82002E-26
 -1       702 1.86125E-09 4.82495E-08 1.13965E-25
 -1       703 2.40584E-09 4.94601E-08 1.47310E-25
 -1       704 2.91683E-09 5.05163E-08 1.78599E-25
 -1       705 3.39815E-09 5.14750E-08 2.08070E-25
 -1       706 3.85240E-09 5.23802E-08 2.35884E-25
 -1       707 4.28113E-09 5.32671E-08 2.62135E-25
 -1       708 4.68519E-09 5.41654E-08 2.86875E-25
 -1       709 5.06492E-09 5.51016E-08 3.10126E-25
 -1       710 5.42050E-09 5.61006E-08 3.31899E-25
 -1       711 5.75212E-09 5.71863E-08 3.52204E-25
 -1       712 6.06018E-09 5.83829E-08 3.71067E-25
 -1       713 6.34540E-09 5.97153E-08 3.88531E-25
 -1       714 6.60891E-09 6.12091E-08 4.04666E-25
 -1       715 6.85236E-09 6.28917E-08 4.19572E-25
 -1       716 7.07794E-09 6.47920E-08 4.33384E-25
 -1       717 7.28842E-09 6.69411E-08 4.46272E-25
 -1       718 7.48715E-09 6.93723E-08 4.58441E-25
 -1       719 7.67803E-09 7.21219E-08 4.70128E-25
 -1       720 7.86536E-09 7.52290E-08 4.81598E-25
 -1       721 8.05370E-09 7.87368E-08 4.93131E-25
 -1       722 8.24751E-09 8.26929E-08 5.04997E-25
 -1       723 8.45069E-09 8.71503E-08 5.17438E-25
 -1       724 8.66594E-09 9.21692E-08 5.30618E-25
 -1       725 8.89385E-09 9.78187E-08 5.44573E-25
 -1       726 9.13187E-09 1.04180E-07 5.59147E-25
 -1       727 9.37313E-09 1.11349E-07 5.73919E-25
 -1       728 9.60552E-09 1.19444E-07 5.88149E-25
 -1       729 9.81148E-09 1.28609E-07 6.00760E-25
 -1       730 9.96935E-09 1.39022E-07 6.10426E-25
 -1       731 1.00575E-08 1.50903E-07 6.15826E-25
 -1       801-4.59853E-10 4.03892E-08-2.81569E-26
 -1       802 1.06146E-10 4.16973E-08 6.49933E-27
 -1       803 6.07243E-10 4.27991E-08 3.71817E-26
 -1       804 1.05538E-09 4.37609E-08 6.46210E-26
 -1       805 1.45791E-09 4.46327E-08 8.92685E-26
 -1       806 1.81964E-09 4.54531E-08 1.11417E-25
 -1       807 2.14374E-09 4.62539E-08 1.31262E-25
 -1       808 2.43238E-09 4.70617E-08 1.48935E-25
 -1       809 2.68709E-09 4.79005E-08 1.64532E-25
 -1       810 2.90909E-09 4.87923E-08 1.78124E-25
 -1       811 3.09948E-09 4.97584E-08 1.89782E-25
 -1       812 3.25954E-09 5.08202E-08 1.99582E-25
 -1       813 3.39077E-09 5.19993E-08 2.07618E-25
 -1       814 3.49512E-09 5.33183E-08 2.14007E-25
 -1       815 3.57504E-09 5.48009E-08 2.18901E-25
 -1       816 3.63357E-09 5.64725E-08 2.22485E-25
 -1       817 3.67441E-09 5.83603E-08 2.24985E-25
 -1       818 3.70193E-09 6.04936E-08 2.26671E-25
 -1       819 3.72120E-09 6.29045E-08 2.27850E-25
 -1       820 3.73793E-09 6.56280E-08 2.28874E-25
 -1       821 3.75835E-09 6.87029E-08 2.30125E-25
 -1       822 3.78908E-09 7.21725E-08 2.32006E-25
 -1       823 3.83685E-09 7.60855E-08 2.34931E-25
 -1       824 3.90818E-09 8.04976E-08 2.39299E-25
 -1       825 4.00897E-09 8.54730E-08 2.45470E-25
 -1       826 4.14411E-09 9.10872E-08 2.53745E-25
 -1       827 4.31718E-09 9.74292E-08 2.64342E-25
 -1       828 4.53045E-09 1.04606E-07 2.77401E-25
 -1       829 4.78553E-09 1.12745E-07 2.93019E-25
 -1       830 5.08509E-09 1.22001E-07 3.11362E-25
 -1       831 5.43597E-09 1.32555E-07 3.32846E-25
 -1       901-2.02740E-09 3.41904E-08-1.24138E-25
 -1       902-1.47784E-09 3.53444E-08-9.04888E-26
 -1       903-1.01519E-09 3.63193E-08-6.21604E-26
 -1       904-6.22144E-10 3.71715E-08-3.80941E-26
 -1       905-2.88197E-10 3.79432E-08-1.76464E-26
 -1       906-6.58412E-12 3.86681E-08-4.03148E-28
 -1       907 2.27270E-10 3.93735E-08 1.39158E-26
 -1       908 4.16611E-10 4.00827E-08 2.55092E-26
 -1       909 5.63893E-10 4.08167E-08 3.45274E-26
 -1       910 6.71148E-10 4.15946E-08 4.10946E-26
 -1       911 7.40263E-10 4.24350E-08 4.53266E-26
 -1       912 7.73203E-10 4.33562E-08 4.73434E-26
 -1       913 7.72185E-10 4.43769E-08 4.72811E-26
 -1       914 7.39833E-10 4.55164E-08 4.53002E-26
 -1       915 6.79301E-10 4.67951E-08 4.15938E-26
 -1       916 5.94388E-10 4.82348E-08 3.63946E-26
 -1       917 4.89610E-10 4.98587E-08 2.99790E-26
 -1       918 3.70296E-10 5.16923E-08 2.26733E-26
 -1       919 2.42628E-10 5.37633E-08 1.48562E-26
 -1       920 1.13675E-10 5.61025E-08 6.96033E-27
 -1       921-8.60014E-12 5.87438E-08-5.26590E-28
 -1       922-1.15359E-10 6.17256E-08-7.06345E-27
 -1       923-1.96927E-10 6.50912E-08-1.20579E-26
 -1       924-2.42841E-10 6.88906E-08-1.48692E-26
 -1       925-2.41867E-10 7.31813E-08-1.48096E-26
 -1       926-1.81936E-10 7.80307E-08-1.11400E-26
 -1       927-4.99059E-11 8.35180E-08-3.05575E-27
 -1       928 1.68985E-10 8.97367E-08 1.03470E-26
 -1       929 4.92134E-10 9.67974E-08 3.01335E-26
 -1       930 9.41214E-10 1.04830E-07 5.76308E-26
 -1       931 1.54453E-09 1.13985E-07 9.45718E-26
 -1      1001-3.39843E-09 2.81851E-08-2.08087E-25
 -1      1002-2.86337E-09 2.91689E-08-1.75325E-25
 -1      1003-2.43380E-09 3.00024E-08-1.49022E-25
 -1      1004-2.08785E-09 3.07317E-08-1.27840E-25
 -1      1005-1.81226E-09 3.13922E-08-1.10965E-25
 -1      1006-1.59852E-09 3.20117E-08-9.78781E-26
 -1      1007-1.44088E-09 3.26132E-08-8.82257E-26
 -1      1008-1.33520E-09 3.32165E-08-8.17547E-26
 -1      1009-1.27828E-09 3.38390E-08-7.82697E-26
 -1      1010-1.26745E-09 3.44971E-08-7.76066E-26
 -1      1011-1.30022E-09 3.52062E-08-7.96128E-26
 -1      1012-1.37404E-09 3.59819E-08-8.41330E-26
 -1      1013-1.48613E-09 3.68397E-08-9.09962E-26
 -1      1014-1.63329E-09 3.77957E-08-1.00007E-25
 -1      1015-1.81176E-09 3.88669E-08-1.10935E-25
 -1      1016-2.01709E-09 4.00716E-08-1.23507E-25
 -1      1017-2.24403E-09 4.14293E-08-1.37403E-25
 -1      1018-2.48639E-09 4.29612E-08-1.52242E-25
 -1      1019-2.73693E-09 4.46909E-08-1.67583E-25
 -1      1020-2.98731E-09 4.66442E-08-1.82914E-25
 -1      1021-3.22790E-09 4.88502E-08-1.97645E-25
 -1      1022-3.44770E-09 5.13417E-08-2.11104E-25
 -1      1023-3.63422E-09 5.41560E-08-2.22524E-25
 -1      1024-3.77326E-09 5.73359E-08-2.31038E-25
 -1      1025-3.84866E-09 6.09311E-08-2.35654E-25
 -1      1026-3.84192E-09 6.49993E-08-2.35242E-25
 -1      1027-3.73162E-09 6.96080E-08-2.28488E-25
 -1      1028-3.49261E-09 7.48365E-08-2.13854E-25
 -1      1029-3.09479E-09 8.07771E-08-1.89495E-25
 -1      1030-2.50161E-09 8.75370E-08-1.53175E-25
 -1      1031-1.66816E-09 9.52395E-08-1.02142E-25
 -1      1101-4.55040E-09 2.23448E-08-2.78623E-25
 -1      1102-4.02762E-09 2.31459E-08-2.46612E-25
 -1      1103-3.62551E-09 2.38260E-08-2.21991E-25
 -1      1104-3.31844E-09 2.44219E-08-2.03189E-25
 -1      1105-3.09084E-09 2.49616E-08-1.89253E-25
 -1      1106-2.93277E-09 2.54674E-08-1.79574E-25
 -1      1107-2.83746E-09 2.59578E-08-1.73739E-25
 -1      1108-2.80006E-09 2.64485E-08-1.71449E-25
 -1      1109-2.81679E-09 2.69539E-08-1.72473E-25
 -1      1110-2.88447E-09 2.74869E-08-1.76617E-25
 -1      1111-3.00014E-09 2.80601E-08-1.83699E-25
 -1      1112-3.16080E-09 2.86859E-08-1.93537E-25
 -1      1113-3.36322E-09 2.93769E-08-2.05931E-25
 -1      1114-3.60374E-09 3.01460E-08-2.20658E-25
 -1      1115-3.87809E-09 3.10068E-08-2.37457E-25
 -1      1116-4.18128E-09 3.19739E-08-2.56021E-25
 -1      1117-4.50742E-09 3.30631E-08-2.75991E-25
 -1      1118-4.84956E-09 3.42914E-08-2.96940E-25
 -1      1119-5.19954E-09 3.56780E-08-3.18370E-25
 -1      1120-5.54785E-09 3.72437E-08-3.39697E-25
 -1      1121-5.88336E-09 3.90123E-08-3.60240E-25
 -1      1122-6.19315E-09 4.10105E-08-3.79208E-25
 -1      1123-6.46217E-09 4.32689E-08-3.95681E-25
 -1      1124-6.67296E-09 4.58225E-08-4.08587E-25
 -1      1125-6.80510E-09 4.87120E-08-4.16678E-25
 -1      1126-6.83467E-09 5.19846E-08-4.18489E-25
 -1      1127-6.73348E-09 5.56952E-08-4.12293E-25
 -1      1128-6.46802E-09 5.99076E-08-3.96039E-25
 -1      1129-5.99825E-09 6.46960E-08-3.67275E-25
 -1      1130-5.27607E-09 7.01457E-08-3.23055E-25
 -1      1131-4.24368E-09 7.63543E-08-2.59842E-25
 -1      1201-5.46509E-09 1.66390E-08-3.34629E-25
 -1      1202-4.95213E-09 1.72477E-08-3.03220E-25
 -1      1203-4.57163E-09 1.77654E-08-2.79922E-25
 -1      1204-4.29501E-09 1.82195E-08-2.62985E-25
 -1      1205-4.10492E-09 1.86309E-08-2.51345E-25
 -1      1206-3.99023E-09 1.90162E-08-2.44323E-25
 -1      1207-3.94343E-09 1.93894E-08-2.41458E-25
 -1      1208-3.95907E-09 1.97622E-08-2.42415E-25
 -1      1209-4.03295E-09 2.01456E-08-2.46939E-25
 -1      1210-4.16148E-09 2.05492E-08-2.54809E-25
 -1      1211-4.34137E-09 2.09826E-08-2.65823E-25
 -1      1212-4.56928E-09 2.14551E-08-2.79779E-25
 -1      1213-4.84164E-09 2.19762E-08-2.96455E-25
 -1      1214-5.15441E-09 2.25555E-08-3.15606E-25
 -1      1215-5.50296E-09 2.32034E-08-3.36948E-25
 -1      1216-5.88184E-09 2.39307E-08-3.60147E-25
 -1      1217-6.28464E-09 2.47495E-08-3.84810E-25
 -1      1218-6.70379E-09 2.56725E-08-4.10475E-25
 -1      1219-7.13038E-09 2.67142E-08-4.36595E-25
 -1      1220-7.55389E-09 2.78905E-08-4.62527E-25
 -1      1221-7.96196E-09 2.92194E-08-4.87513E-25
 -1      1222-8.34003E-09 3.07212E-08-5.10663E-25
 -1      1223-8.67100E-09 3.24194E-08-5.30928E-25
 -1      1224-8.93470E-09 3.43406E-08-5.47075E-25
 -1      1225-9.10732E-09 3.65158E-08-5.57644E-25
 -1      1226-9.16067E-09 3.89809E-08-5.60911E-25
 -1      1227-9.06128E-09 4.17776E-08-5.54825E-25
 -1      1228-8.76929E-09 4.49539E-08-5.36947E-25
 -1      1229-8.23715E-09 4.85657E-08-5.04364E-25
 -1      1230-7.40813E-09 5.26767E-08-4.53602E-25
 -1      1231-6.21465E-09 5.73600E-08-3.80525E-25
 -1      1301-6.12842E-09 1.10353E-08-3.75245E-25
 -1      1302-5.62263E-09 1.14448E-08-3.44275E-25
 -1      1303-5.25769E-09 1.17935E-08-3.21930E-25
 -1      1304-5.00294E-09 1.20997E-08-3.06332E-25
 -1      1305-4.83973E-09 1.23770E-08-2.96338E-25
 -1      1306-4.75611E-09 1.26368E-08-2.91218E-25
 -1      1307-4.74398E-09 1.28881E-08-2.90475E-25
 -1      1308-4.79749E-09 1.31390E-08-2.93752E-25
 -1      1309-4.91212E-09 1.33966E-08-3.00770E-25
 -1      1310-5.08403E-09 1.36676E-08-3.11296E-25
 -1      1311-5.30966E-09 1.39582E-08-3.25112E-25
 -1      1312-5.58546E-09 1.42747E-08-3.42000E-25
 -1      1313-5.90761E-09 1.46234E-08-3.61725E-25
 -1      1314-6.27181E-09 1.50109E-08-3.84025E-25
 -1      1315-6.67315E-09 1.54439E-08-4.08599E-25
 -1      1316-7.10585E-09 1.59298E-08-4.35094E-25
 -1      1317-7.56314E-09 1.64765E-08-4.63093E-25
 -1      1318-8.03697E-09 1.70928E-08-4.92106E-25
 -1      1319-8.51784E-09 1.77881E-08-5.21550E-25
 -1      1320-8.99452E-09 1.85733E-08-5.50737E-25
 -1      1321-9.45369E-09 1.94605E-08-5.78852E-25
 -1      1322-9.87959E-09 2.04634E-08-6.04930E-25
 -1      1323-1.02536E-08 2.15977E-08-6.27829E-25
 -1      1324-1.05535E-08 2.28814E-08-6.46192E-25
 -1      1325-1.07530E-08 2.43355E-08-6.58411E-25
 -1      1326-1.08210E-08 2.59841E-08-6.62571E-25
 -1      1327-1.07201E-08 2.78550E-08-6.56395E-25
 -1      1328-1.04061E-08 2.99806E-08-6.37167E-25
 -1      1329-9.82611E-09 3.23981E-08-6.01656E-25
 -1      1330-8.91743E-09 3.51499E-08-5.46017E-25
 -1      1331-7.60555E-09 3.82848E-08-4.65691E-25
 -1      1401-6.53039E-09 5.50036E-09-3.99858E-25
 -1      1402-6.02897E-09 5.70620E-09-3.69156E-25
 -1      1403-5.67343E-09 5.88164E-09-3.47386E-25
 -1      1404-5.43185E-09 6.03570E-09-3.32594E-25
 -1      1405-5.28481E-09 6.17533E-09-3.23591E-25
 -1      1406-5.21985E-09 6.30604E-09-3.19613E-25
 -1      1407-5.22853E-09 6.43249E-09-3.20144E-25
 -1      1408-5.30476E-09 6.55863E-09-3.24812E-25
 -1      1409-5.44382E-09 6.68808E-09-3.33327E-25
 -1      1410-5.64172E-09 6.82413E-09-3.45444E-25
 -1      1411-5.89476E-09 6.96994E-09-3.60938E-25
 -1      1412-6.19924E-09 7.12866E-09-3.79581E-25
 -1      1413-6.55119E-09 7.30344E-09-4.01131E-25
 -1      1414-6.94618E-09 7.49753E-09-4.25317E-25
 -1      1415-7.37910E-09 7.71436E-09-4.51825E-25
 -1      1416-7.84401E-09 7.95762E-09-4.80291E-25
 -1      1417-8.33387E-09 8.23126E-09-5.10286E-25
 -1      1418-8.84037E-09 8.53965E-09-5.41299E-25
 -1      1419-9.35364E-09 8.88761E-09-5.72726E-25
 -1      1420-9.86199E-09 9.28054E-09-6.03852E-25
 -1      1421-1.03515E-08 9.72452E-09-6.33826E-25
 -1      1422-1.08057E-08 1.02265E-08-6.61637E-25
 -1      1423-1.12050E-08 1.07943E-08-6.86084E-25
 -1      1424-1.15260E-08 1.14371E-08-7.05738E-25
 -1      1425-1.17409E-08 1.21653E-08-7.18897E-25
 -1      1426-1.18166E-08 1.29911E-08-7.23536E-25
 -1      1427-1.17138E-08 1.39286E-08-7.17238E-25
 -1      1428-1.13853E-08 1.49938E-08-6.97128E-25
 -1      1429-1.07754E-08 1.62053E-08-6.59781E-25
 -1      1430-9.81763E-09 1.75846E-08-6.01136E-25
 -1      1431-8.43342E-09 1.91558E-08-5.16381E-25
 -1      1501-6.66505E-09 0.00000E+00-4.08103E-25
 -1      1502-6.16509E-09 0.00000E+00-3.77491E-25
 -1      1503-5.81269E-09 0.00000E+00-3.55913E-25
 -1      1504-5.57551E-09 0.00000E+00-3.41390E-25
 -1      1505-5.43387E-09 0.00000E+00-3.32717E-25
 -1      1506-5.37513E-09 0.00000E+00-3.29121E-25
 -1      1507-5.39075E-09 0.00000E+00-3.30077E-25
 -1      1508-5.47455E-09 0.00000E+00-3.35209E-25
 -1      1509-5.62176E-09 0.00000E+00-3.44222E-25
 -1      1510-5.82831E-09 0.00000E+00-3.56870E-25
 -1      1511-6.09048E-09 0.00000E+00-3.72922E-25
 -1      1512-6.40451E-09 0.00000E+00-3.92150E-25
 -1      1513-6.76638E-09 0.00000E+00-4.14308E-25
 -1      1514-7.17162E-09 0.00000E+00-4.39121E-25
 -1      1515-7.61507E-09 0.00000E+00-4.66273E-25
 -1      1516-8.09069E-09 0.00000E+00-4.95396E-25
 -1      1517-8.59139E-09 0.00000E+00-5.26054E-25
 -1      1518-9.10876E-09 0.00000E+00-5.57732E-25
 -1      1519-9.63280E-09 0.00000E+00-5.89819E-25
 -1      1520-1.01517E-08 0.00000E+00-6.21589E-25
 -1      1521-1.06512E-08 0.00000E+00-6.52179E-25
 -1      1522-1.11148E-08 0.00000E+00-6.80563E-25
 -1      1523-1.15224E-08 0.00000E+00-7.05521E-25
 -1      1524-1.18503E-08 0.00000E+00-7.25598E-25
 -1      1525-1.20702E-08 0.00000E+00-7.39064E-25
 -1      1526-1.21484E-08 0.00000E+00-7.43852E-25
 -1      1527-1.20447E-08 0.00000E+00-7.37503E-25
 -1      1528-1.17113E-08 0.00000E+00-7.17086E-25
 -1      1529-1.10912E-08 0.00000E+00-6.79115E-25
 -1      1530-1.01168E-08 0.00000E+00-6.19455E-25
 -1      1531-8.70826E-09 0.00000E+00-5.33210E-25
 -3
    1PSTEP                        18           9           1          
  100CL  109 9.00000E-01         496                     0    9           1
 -4  STRESS      6    1
 -5  SXX         1    4    1    1
 -5  SYY         1    4    2    2
 -5  SZZ         1    4    3    3
 -5  SXY         1    4    1    2
 -5  SYZ         1    4    2    3
 -5  SZX         1    4    3    1
 -1         1 3.21771E+04-4.16867E+05 2.31231E+05-4.28839E+03 5.68260E-09 1.26737E-10
 -1         2 3.34982E+04-4.26780E+05 1.91843E+05-3.59981E+03-1.30819E-09 3.17268E-10
 -1         3 5.77221E+04-4.24586E+05 1.76272E+05-6.26618E+03 3.02403E-09 1.13700E-09
 -1         4 7.77646E+04-4.23306E+05 1.67014E+05-9.11044E+03 7.16010E-10-6.44896E-10
 -1         5 9.65902E+04-4.22047E+05 1.62541E+05-1.18674E+04-2.65932E-12 3.75143E-11
 -1         6 1.15442E+05-4.20443E+05 1.61794E+05-1.43759E+04 1.88678E-09 2.33631E-10
 -1         7 1.34817E+05-4.18397E+05 1.63991E+05-1.65763E+04-2.81363E-09-1.25582E-11
 -1         8 1.54892E+05-4.15914E+05 1.68556E+05-1.84605E+04-6.57558E-10-6.92550E-10
 -1         9 1.75698E+05-4.13033E+05 1.75051E+05-2.00345E+04 1.85517E-09-1.98760E-10
 -1        10 1.97187E+05-4.09801E+05 1.83137E+05-2.13013E+04 3.16649E-11 2.32369E-10
 -1        11 2.19261E+05-4.06266E+05 1.92539E+05-2.22537E+04 1.66028E-09 4.30363E-10
 -1        12 2.41778E+05-4.02477E+05 2.03018E+05-2.28712E+04-1.28379E-09 5.67795E-10
 -1        13 2.64546E+05-3.98483E+05 2.14359E+05-2.31189E+04 6.86617E-10 2.55230E-10
 -1        14 2.87315E+05-3.94343E+05 2.26346E+05-2.29462E+04-2.05118E-09-2.41887E-10
 -1        15 3.09763E+05-3.90129E+05 2.38756E+05-2.22870E+04 1.60389E-09 5.44474E-10
 -1        16 3.31478E+05-3.85930E+05 2.51337E+05-2.10584E+04 4.69601E-10-6.22985E-10
 -1        17 3.51943E+05-3.81862E+05 2.63803E+05-1.91610E+04 4.78130E-10 5.09712E-10
 -1        18 3.70506E+05-3.78074E+05 2.75812E+05-1.64790E+04 3.99169E-10-6.72799E-10
 -1        19 3.86357E+05-3.74758E+05 2.86959E+05-1.28817E+04-3.80958E-10-1.66661E-10
 -1        20 3.98503E+05-3.72153E+05 2.96756E+05-8.22840E+03-2.25832E-09-8.46308E-10
 -1        21 4.05737E+05-3.70556E+05 3.04620E+05-2.37735E+03-4.19877E-10-2.65122E-10
 -1        22 4.06620E+05-3.70314E+05 3.09863E+05 4.79479E+03 5.88282E-10 3.56137E-10
 -1        23 3.99479E+05-3.71813E+05 3.11694E+05 1.33573E+04 2.78214E-10-1.66917E-10
 -1        24 3.82447E+05-3.75421E+05 3.09246E+05 2.32580E+04-2.91078E-09-4.71317E-11
 -1        25 3.53595E+05-3.81368E+05 3.01646E+05 3.41978E+04 2.86746E-09 7.65679E-10
 -1        26 3.11243E+05-3.89486E+05 2.88193E+05 4.53945E+04 1.97002E-09 5.33793E-10
 -1        27 2.54628E+05-3.98642E+05 2.68737E+05 5.51280E+04 1.10696E-10 2.94594E-10
 -1        28 1.85305E+05-4.05558E+05 2.44479E+05 5.98604E+04 1.62802E-09 4.73278E-12
 -1        29 1.10031E+05-4.02412E+05 2.19603E+05 5.26253E+04-2.08862E-09-5.06761E-10
 -1        30 4.86971E+04-3.71586E+05 2.05346E+05 2.48569E+04 2.08517E-09 5.37697E-10
 -1        31 4.36251E+04-3.00522E+05 2.18640E+05 6.20531E+03-9.28214E-10-2.56166E-10
 -1       101 1.28179E+04-4.46403E+05 1.01804E+05-1.19889E+03-2.78858E-09-3.59697E-10
 -1       102 1.46104E+04-4.47646E+05 8.58455E+04-4.88028E+03 2.37229E-09-1.63921E-10
 -1       103 2.44455E+04-4.46686E+05 7.81856E+04-1.07360E+04-2.03429E-09 1.47288E-11
 -1       104 3.27568E+04-4.46973E+05 7.33154E+04-1.58801E+04 6.50226E-10 2.88271E-10
 -1       105 3.97707E+04-4.48054E+05 7.01584E+04-2.03440E+04-1.40039E-09-3.09725E-10
 -1       106 4.57879E+04-4.49662E+05 6.81162E+04-2.41854E+04-4.79989E-10 1.81129E-10
 -1       107 5.10746E+04-4.51639E+05 6.68356E+04-2.74580E+04 9.87394E-10-3.50296E-10
 -1       108 5.58133E+04-4.53902E+05 6.60885E+04-3.01961E+04-1.71697E-10 3.49619E-11
 -1       109 6.01063E+04-4.56418E+05 6.57136E+04-3.24162E+04-5.84872E-11-5.32681E-11
 -1       110 6.39906E+04-4.59180E+05 6.55864E+04-3.41161E+04-5.61087E-10 2.43894E-11
 -1       111 6.74526E+04-4.62198E+05 6.56035E+04-3.52748E+04-1.12982E-09-1.31350E-10
 -1       112 7.04409E+04-4.65492E+05 6.56730E+04-3.58516E+04 3.92298E-10-5.00651E-10
 -1       113 7.28749E+04-4.69087E+05 6.57106E+04-3.57867E+04-2.96413E-10-6.36558E-11
 -1       114 7.46524E+04-4.73009E+05 6.56364E+04-3.50003E+04 5.42190E-10-6.91309E-11
 -1       115 7.56562E+04-4.77282E+05 6.53743E+04-3.33938E+04-2.91264E-10-2.78415E-10
 -1       116 7.57607E+04-4.81923E+05 6.48527E+04-3.08494E+04-3.43177E-10 1.99563E-10
 -1       117 7.48404E+04-4.86941E+05 6.40063E+04-2.72319E+04-7.86107E-10-3.90346E-11
 -1       118 7.27802E+04-4.92328E+05 6.27794E+04-2.23905E+04-3.87451E-10-2.56419E-10
 -1       119 6.94904E+04-4.98052E+05 6.11325E+04-1.61641E+04 3.12331E-10 1.35366E-10
 -1       120 6.49256E+04-5.04041E+05 5.90494E+04-8.38836E+03 3.38273E-10-4.97868E-11
 -1       121 5.91101E+04-5.10170E+05 5.65497E+04 1.09014E+03 8.14064E-10 3.00080E-10
 -1       122 5.21699E+04-5.16225E+05 5.37032E+04 1.23916E+04-9.65125E-10-3.57463E-10
 -1       123 4.43685E+04-5.21865E+05 5.06497E+04 2.55665E+04 7.95100E-10-2.15810E-10
 -1       124 3.61409E+04-5.26554E+05 4.76218E+04 4.05364E+04 1.34359E-10 7.00244E-11
 -1       125 2.81072E+04-5.29454E+05 4.49683E+04 5.70001E+04-6.11783E-10-1.38537E-10
 -1       126 2.10254E+04-5.29250E+05 4.31708E+04 7.42819E+04-2.59205E-10 2.35414E-11
 -1       127 1.55894E+04-5.23852E+05 4.28353E+04 9.10887E+04 3.27539E-10 5.76400E-12
 -1       128 1.18825E+04-5.09849E+05 4.46229E+04 1.05084E+05-1.06813E-09-3.17770E-10
 -1       129 8.21019E+03-4.81447E+05 4.90774E+04 1.11982E+05-7.72580E-10-1.29206E-10
 -1       130 1.82885E+03-4.29857E+05 5.70562E+04 9.84927E+04-9.75314E-10-4.94248E-11
 -1       131 1.45695E+04-3.08460E+05 7.79535E+04 7.30786E+04 1.34507E-09 1.10488E-10
 -1       201 5.34023E+03-4.32406E+05 6.82501E+04-2.54585E+03-1.91036E-10-9.84394E-11
 -1       202 1.04788E+04-4.28223E+05 5.95567E+04-7.52620E+03-1.58264E-09-1.34654E-10
 -1       203 1.93235E+04-4.27017E+05 5.47100E+04-1.46302E+04 1.59527E-09 2.09653E-12
 -1       204 2.52203E+04-4.27315E+05 5.14729E+04-2.07890E+04-4.00970E-11-1.30898E-11
 -1       205 2.96184E+04-4.28306E+05 4.92811E+04-2.60185E+04-6.53985E-10-8.95670E-11
 -1       206 3.31161E+04-4.29612E+05 4.77938E+04-3.05136E+04-4.34777E-11-8.30090E-11
 -1       207 3.60088E+04-4.31068E+05 4.67929E+04-3.43611E+04 3.03486E-10 7.72649E-11
 -1       208 3.84663E+04-4.32616E+05 4.61337E+04-3.76006E+04-7.68324E-10 7.52033E-11
 -1       209 4.05879E+04-4.34255E+05 4.57155E+04-4.02405E+04 1.15487E-09 1.58588E-10
 -1       210 4.24272E+04-4.36012E+05 4.54646E+04-4.22658E+04-4.95406E-11-1.04725E-10
 -1       211 4.40059E+04-4.37937E+05 4.53237E+04-4.36413E+04 4.69128E-10 8.67263E-11
 -1       212 4.53232E+04-4.40084E+05 4.52465E+04-4.43122E+04-1.06850E-10 5.15350E-11
 -1       213 4.63615E+04-4.42518E+05 4.51927E+04-4.42043E+04 6.22571E-10 1.28918E-10
 -1       214 4.70916E+04-4.45310E+05 4.51266E+04-4.32244E+04-2.36046E-10-7.06462E-11
 -1       215 4.74768E+04-4.48532E+05 4.50153E+04-4.12605E+04-2.13757E-10 6.63087E-12
 -1       216 4.74764E+04-4.52262E+05 4.48276E+04-3.81831E+04-4.85052E-10-1.66794E-10
 -1       217 4.70496E+04-4.56579E+05 4.45346E+04-3.38472E+04 4.60633E-10 2.30039E-10
 -1       218 4.61597E+04-4.61557E+05 4.41095E+04-2.80961E+04 2.80223E-10-8.25283E-11
 -1       219 4.47792E+04-4.67264E+05 4.35291E+04-2.07677E+04-1.03666E-11-5.97618E-11
 -1       220 4.28945E+04-4.73743E+05 4.27752E+04-1.17048E+04 1.08423E-10 9.40349E-11
 -1       221 4.05120E+04-4.81000E+05 4.18377E+04-7.69902E+02 7.66430E-10 2.47016E-10
 -1       222 3.76616E+04-4.88962E+05 4.07183E+04 1.21309E+04-7.01387E-10-1.58878E-10
 -1       223 3.43962E+04-4.97424E+05 3.94367E+04 2.70145E+04 1.21025E-10-1.69282E-11
 -1       224 3.07790E+04-5.05951E+05 3.80384E+04 4.37722E+04 8.93303E-10 4.26652E-10
 -1       225 2.68461E+04-5.13709E+05 3.66068E+04 6.21035E+04 8.59865E-10 8.40493E-12
 -1       226 2.25124E+04-5.19170E+05 3.52791E+04 8.14316E+04 4.09111E-11-7.83517E-11
 -1       227 1.73556E+04-5.19583E+05 3.42701E+04 1.00807E+05 2.09444E-10 5.64899E-11
 -1       228 1.01040E+04-5.09952E+05 3.39046E+04 1.18840E+05 1.28467E-10 6.97391E-11
 -1       229-2.67068E+03-4.81032E+05 3.46473E+04 1.33671E+05 8.42646E-10 1.39625E-10
 -1       230-3.46310E+04-4.11805E+05 3.69515E+04 1.44442E+05-2.75373E-10 9.12276E-11
 -1       231-4.95619E+04-2.82963E+05 4.54235E+04 1.37123E+05-1.71229E-10-2.95717E-10
 -1       301 3.90786E+03-4.21497E+05 4.98654E+04-4.97056E+03-1.21789E-09 9.55820E-11
 -1       302 6.63311E+03-4.18128E+05 4.36159E+04-8.88596E+03 1.49472E-09 1.18556E-10
 -1       303 1.19702E+04-4.17761E+05 3.97402E+04-1.63272E+04-8.41316E-10-6.96709E-11
 -1       304 1.63450E+04-4.18638E+05 3.71770E+04-2.22368E+04-3.45946E-10 1.24095E-11
 -1       305 1.96238E+04-4.20143E+05 3.54055E+04-2.72915E+04 7.55370E-10 2.49997E-10
 -1       306 2.21100E+04-4.21965E+05 3.41489E+04-3.16387E+04-6.82580E-10-6.37623E-11
 -1       307 2.40232E+04-4.23965E+05 3.32363E+04-3.53642E+04 1.42899E-10-4.65647E-11
 -1       308 2.55054E+04-4.26096E+05 3.25548E+04-3.85019E+04-5.30092E-10 3.63267E-12
 -1       309 2.66481E+04-4.28365E+05 3.20265E+04-4.10543E+04-6.56895E-10-2.66346E-12
 -1       310 2.75080E+04-4.30808E+05 3.15948E+04-4.30013E+04-5.99262E-10-1.78483E-10
 -1       311 2.81181E+04-4.33482E+05 3.12160E+04-4.43044E+04 4.82189E-11-1.53261E-12
 -1       312 2.84939E+04-4.36454E+05 3.08554E+04-4.49075E+04 3.83786E-10 6.71118E-11
 -1       313 2.86389E+04-4.39802E+05 3.04833E+04-4.47386E+04 1.12880E-10-2.81936E-11
 -1       314 2.85482E+04-4.43606E+05 3.00740E+04-4.37094E+04-8.25982E-11 1.95353E-11
 -1       315 2.82119E+04-4.47954E+05 2.96041E+04-4.17162E+04 3.72726E-10 3.52065E-11
 -1       316 2.76179E+04-4.52934E+05 2.90525E+04-3.86412E+04 3.76211E-10 9.84724E-11
 -1       317 2.67543E+04-4.58633E+05 2.83999E+04-3.43543E+04-4.80270E-10-1.07096E-10
 -1       318 2.56121E+04-4.65135E+05 2.76295E+04-2.87162E+04 1.56039E-10-4.09957E-11
 -1       319 2.41857E+04-4.72508E+05 2.67275E+04-2.15841E+04-3.90358E-10 2.53511E-11
 -1       320 2.24740E+04-4.80794E+05 2.56842E+04-1.28192E+04 4.73289E-10 4.24218E-11
 -1       321 2.04779E+04-4.89988E+05 2.44960E+04-2.29718E+03 4.73251E-10-3.67288E-11
 -1       322 1.81927E+04-5.00004E+05 2.31669E+04 1.00761E+04 6.12252E-10 1.22307E-10
 -1       323 1.55917E+04-5.10625E+05 2.17120E+04 2.43457E+04-1.12060E-09-3.13085E-10
 -1       324 1.25930E+04-5.21416E+05 2.01602E+04 4.04843E+04-2.69915E-10-4.74800E-11
 -1       325 8.99354E+03-5.31593E+05 1.85581E+04 5.83698E+04-3.41352E-10 2.34988E-10
 -1       326 4.34526E+03-5.39806E+05 1.69735E+04 7.77757E+04 4.03576E-10 8.78883E-11
 -1       327-2.28128E+03-5.43785E+05 1.54965E+04 9.84094E+04-4.04839E-10 8.87667E-11
 -1       328-1.27502E+04-5.39733E+05 1.42352E+04 1.20087E+05 1.29770E-09 9.06266E-12
 -1       329-3.08731E+04-5.21163E+05 1.32955E+04 1.43396E+05 2.35472E-10 3.05774E-11
 -1       330-6.24394E+04-4.76779E+05 1.29157E+04 1.71727E+05-1.99532E-11-1.07728E-10
 -1       331-8.12257E+04-4.34360E+05 1.24486E+04 1.88659E+05 7.09134E-10 3.25150E-10
 -1       401 2.30218E+03-4.07658E+05 3.09132E+04-5.14704E+03 9.70229E-10 6.19128E-11
 -1       402 3.71956E+03-4.07739E+05 2.69142E+04-9.47014E+03-3.58466E-10-4.78329E-11
 -1       403 6.64359E+03-4.08328E+05 2.44520E+04-1.70720E+04 4.98008E-12 1.32676E-10
 -1       404 8.89270E+03-4.09880E+05 2.26987E+04-2.29649E+04-2.54814E-10-1.28089E-10
 -1       405 1.06524E+04-4.11932E+05 2.14263E+04-2.78302E+04-1.59388E-10-1.00285E-10
 -1       406 1.19278E+04-4.14275E+05 2.04596E+04-3.19709E+04 2.27235E-10-3.35342E-11
 -1       407 1.27888E+04-4.16812E+05 1.96871E+04-3.55010E+04-5.08876E-10-3.22547E-11
 -1       408 1.33050E+04-4.19514E+05 1.90341E+04-3.84653E+04 3.45930E-11-4.05983E-12
 -1       409 1.35327E+04-4.22400E+05 1.84485E+04-4.08690E+04 2.13162E-10-1.23797E-10
 -1       410 1.35141E+04-4.25516E+05 1.78917E+04-4.26926E+04 2.04708E-12-2.56309E-11
 -1       411 1.32797E+04-4.28925E+05 1.73345E+04-4.38976E+04-1.75151E-10-5.70810E-11
 -1       412 1.28508E+04-4.32705E+05 1.67532E+04-4.44298E+04 1.97895E-11 1.90762E-10
 -1       413 1.22417E+04-4.36943E+05 1.61279E+04-4.42206E+04-7.66115E-10-1.93697E-10
 -1       414 1.14622E+04-4.41729E+05 1.54416E+04-4.31874E+04 6.47644E-10 4.59878E-11
 -1       415 1.05192E+04-4.47160E+05 1.46789E+04-4.12348E+04 7.43275E-11 2.16855E-10
 -1       416 9.41826E+03-4.53334E+05 1.38265E+04-3.82552E+04-3.01111E-10-2.02537E-10
 -1       417 8.16487E+03-4.60347E+05 1.28723E+04-3.41303E+04 3.90812E-10 1.72040E-10
 -1       418 6.76422E+03-4.68287E+05 1.18064E+04-2.87331E+04-5.68375E-10-9.91737E-11
 -1       419 5.22022E+03-4.77226E+05 1.06210E+04-2.19317E+04 9.09708E-11 6.37496E-11
 -1       420 3.53209E+03-4.87211E+05 9.31099E+03-1.35927E+04 2.36091E-10 1.08587E-10
 -1       421 1.68728E+03-4.98238E+05 7.87499E+03-3.58740E+03 2.31701E-10 5.71758E-12
 -1       422-3.51503E+02-5.10229E+05 6.31583E+03 8.20240E+03 3.96105E-11-3.09083E-11
 -1       423-2.66908E+03-5.22984E+05 4.64136E+03 2.18792E+04-2.61725E-11 2.00618E-10
 -1       424-5.43636E+03-5.36124E+05 2.86469E+03 3.75287E+04 3.99065E-10-9.75613E-11
 -1       425-8.97390E+03-5.48986E+05 1.00375E+03 5.52313E+04-3.61326E-10 6.08581E-11
 -1       426-1.38546E+04-5.60498E+05-9.21228E+02 7.51027E+04-5.09721E-10-1.08418E-10
 -1       427-2.10631E+04-5.68974E+05-2.89320E+03 9.74024E+04 7.86765E-10 7.27186E-12
 -1       428-3.22271E+04-5.71861E+05-4.90938E+03 1.22796E+05-6.83015E-10 1.01299E-10
 -1       429-4.97673E+04-5.65481E+05-6.99083E+03 1.52941E+05 4.27960E-10-6.47491E-11
 -1       430-7.68652E+04-5.45414E+05-9.23599E+03 1.91738E+05 4.46024E-10-1.35790E-10
 -1       431-9.46770E+04-5.43340E+05-1.32333E+04 2.16364E+05-1.59101E-10 1.19387E-10
 -1       501 9.11873E+02-3.94012E+05 1.19164E+04-5.03040E+03-2.90569E-09-3.96027E-10
 -1       502 1.17275E+03-3.96504E+05 1.02306E+04-9.31405E+03 2.22995E-10 1.52333E-10
 -1       503 1.97431E+03-3.98694E+05 9.13911E+03-1.69375E+04 7.89655E-10 4.47412E-11
 -1       504 2.43510E+03-4.01108E+05 8.28868E+03-2.28011E+04 7.59169E-10 9.22075E-11
 -1       505 2.66789E+03-4.03796E+05 7.58017E+03-2.75363E+04-1.49923E-09-8.29476E-11
 -1       506 2.68331E+03-4.06693E+05 6.95583E+03-3.14819E+04 9.09045E-10 1.21209E-10
 -1       507 2.46932E+03-4.09767E+05 6.37062E+03-3.48030E+04-5.86709E-10-6.88205E-11
 -1       508 2.03316E+03-4.13027E+05 5.79176E+03-3.75686E+04 2.32918E-10 1.20125E-11
 -1       509 1.39194E+03-4.16508E+05 5.19482E+03-3.97970E+04 1.85033E-10 3.66803E-12
 -1       510 5.66017E+02-4.20267E+05 4.56098E+03-4.14757E+04 3.08167E-10 8.52728E-11
 -1       511-4.24252E+02-4.24379E+05 3.87523E+03-4.25712E+04-4.13926E-10-1.20544E-10
 -1       512-1.55968E+03-4.28929E+05 3.12508E+03-4.30341E+04 3.68325E-10 5.17711E-11
 -1       513-2.82239E+03-4.34012E+05 2.29988E+03-4.28008E+04 3.77889E-10 2.13879E-10
 -1       514-4.19544E+03-4.39727E+05 1.39026E+03-4.17956E+04-3.48849E-10-1.42088E-10
 -1       515-5.66245E+03-4.46179E+05 3.87926E+02-3.99305E+04-2.92346E-10 5.72723E-11
 -1       516-7.20735E+03-4.53473E+05-7.14447E+02-3.71067E+04-1.92584E-10-8.34458E-11
 -1       517-8.81479E+03-4.61715E+05-1.92314E+03-3.32147E+04-3.01826E-10 1.34741E-10
 -1       518-1.04713E+04-4.70999E+05-3.24332E+03-2.81352E+04-1.79984E-10-8.90401E-11
 -1       519-1.21683E+04-4.81408E+05-4.67880E+03-2.17402E+04 3.97937E-10-4.00287E-11
 -1       520-1.39070E+04-4.92997E+05-6.23190E+03-1.38940E+04-1.46597E-10 2.20614E-11
 -1       521-1.57071E+04-5.05780E+05-7.90324E+03-4.45325E+03-1.66710E-10 3.29887E-11
 -1       522-1.76210E+04-5.19707E+05-9.69190E+03 6.73422E+03-1.70118E-10-2.86656E-11
 -1       523-1.97548E+04-5.34629E+05-1.15958E+04 1.98350E+04-1.46351E-10 9.73706E-11
 -1       524-2.23013E+04-5.50259E+05-1.36126E+04 3.50432E+04 6.08779E-10-1.26973E-10
 -1       525-2.55863E+04-5.66112E+05-1.57419E+04 5.26104E+04 1.16669E-09 1.39587E-10
 -1       526-3.01319E+04-5.81436E+05-1.79893E+04 7.29046E+04 4.52617E-10 6.57633E-11
 -1       527-3.67330E+04-5.95135E+05-2.03720E+04 9.65243E+04-1.14301E-09-9.71951E-11
 -1       528-4.65166E+04-6.05728E+05-2.29286E+04 1.24507E+05 6.74511E-10 1.68788E-10
 -1       529-6.09288E+04-6.11454E+05-2.57354E+04 1.58681E+05 4.76514E-10 8.08365E-11
 -1       530-8.14691E+04-6.10727E+05-2.89299E+04 2.02144E+05-1.01763E-09 2.31299E-11
 -1       531-9.61312E+04-6.32508E+05-3.43778E+04 2.30279E+05-3.78802E-10 1.46740E-10
 -1       601-4.37505E+02-3.80976E+05-6.59463E+03-4.74156E+03 2.61928E-10-3.43401E-11
 -1       602-1.17155E+03-3.85291E+05-6.04282E+03-8.84681E+03 2.49228E-10 7.73460E-11
 -1       603-2.25975E+03-3.88968E+05-5.79570E+03-1.61859E+04-3.57115E-10-1.96751E-11
 -1       604-3.36712E+03-3.92408E+05-5.75495E+03-2.18888E+04 4.46017E-10 1.53226E-10
 -1       605-4.48592E+03-3.95827E+05-5.87469E+03-2.64576E+04 8.40430E-11 5.58244E-11
 -1       606-5.64630E+03-3.99324E+05-6.12513E+03-3.02090E+04-2.51563E-10-5.10569E-11
 -1       607-6.88442E+03-4.02949E+05-6.48898E+03-3.33215E+04 6.80877E-10 1.00601E-10
 -1       608-8.22644E+03-4.06756E+05-6.95797E+03-3.58844E+04-4.39778E-10-2.15284E-10
 -1       609-9.68299E+03-4.10806E+05-7.52867E+03-3.79308E+04-1.26241E-10 3.90652E-11
 -1       610-1.12531E+04-4.15174E+05-8.20025E+03-3.94590E+04 4.16975E-10 7.49317E-11
 -1       611-1.29280E+04-4.19946E+05-8.97342E+03-4.04439E+04 3.02659E-10 9.89425E-11
 -1       612-1.46938E+04-4.25214E+05-9.84974E+03-4.08429E+04 5.87764E-11 2.65264E-11
 -1       613-1.65334E+04-4.31083E+05-1.08312E+04-4.05996E+04-1.00484E-10-4.99237E-11
 -1       614-1.84273E+04-4.37660E+05-1.19201E+04-3.96451E+04 3.30107E-10 2.99524E-11
 -1       615-2.03543E+04-4.45056E+05-1.31186E+04-3.78993E+04-2.70394E-10-4.67669E-11
 -1       616-2.22923E+04-4.53388E+05-1.44288E+04-3.52707E+04 3.12867E-10 1.04558E-10
 -1       617-2.42193E+04-4.62767E+05-1.58526E+04-3.16565E+04 1.76209E-10-7.37266E-11
 -1       618-2.61160E+04-4.73300E+05-1.73913E+04-2.69425E+04-4.81522E-10 1.21750E-10
 -1       619-2.79683E+04-4.85084E+05-1.90458E+04-2.10015E+04 2.47484E-11-8.15624E-11
 -1       620-2.97735E+04-4.98193E+05-2.08163E+04-1.36922E+04-4.47855E-10-2.66277E-10
 -1       621-3.15475E+04-5.12669E+05-2.27028E+04-4.85485E+03 2.36853E-10 1.02501E-10
 -1       622-3.33371E+04-5.28506E+05-2.47054E+04 5.69446E+03-2.16111E-10-4.79430E-11
 -1       623-3.52361E+04-5.45629E+05-2.68249E+04 1.81757E+04 2.35080E-10 3.32500E-11
 -1       624-3.74077E+04-5.63868E+05-2.90643E+04 3.28650E+04 3.97415E-10-9.07001E-11
 -1       625-4.01118E+04-5.82932E+05-3.14313E+04 5.01282E+04-3.72779E-10-8.47521E-11
 -1       626-4.37347E+04-6.02381E+05-3.39408E+04 7.04775E+04 2.99446E-10-1.86048E-11
 -1       627-4.88128E+04-6.21620E+05-3.66208E+04 9.46594E+04-2.27944E-10-1.55471E-11
 -1       628-5.60275E+04-6.39940E+05-3.95183E+04 1.23787E+05-4.97190E-10-1.21846E-10
 -1       629-6.61331E+04-6.56664E+05-4.27095E+04 1.59510E+05-1.07458E-09-6.95611E-11
 -1       630-7.97676E+04-6.71508E+05-4.63132E+04 2.04193E+05-3.32196E-10 1.79310E-10
 -1       631-9.08886E+04-7.09012E+05-5.22668E+04 2.33137E+05-1.52095E-09-2.42557E-10
 -1       701-1.68866E+03-3.68773E+05-2.41881E+04-4.36078E+03-5.09713E-11 4.24186E-11
 -1       702-3.31760E+03-3.74541E+05-2.15426E+04-8.17790E+03-5.10329E-10-1.01060E-10
 -1       703-6.11147E+03-3.79517E+05-2.00298E+04-1.50327E+04 2.90360E-11-1.16352E-10
 -1       704-8.60136E+03-3.83956E+05-1.91347E+04-2.04137E+04-9.25410E-10-1.39822E-10
 -1       705-1.09061E+04-3.88148E+05-1.86773E+04-2.47297E+04-3.40642E-10-3.23157E-11
 -1       706-1.31090E+04-3.92274E+05-1.85465E+04-2.82495E+04 6.18318E-10 1.18073E-10
 -1       707-1.52731E+04-3.96459E+05-1.86715E+04-3.11403E+04-1.43674E-10-8.95437E-12
 -1       708-1.74428E+04-4.00802E+05-1.90072E+04-3.34959E+04-5.99703E-10-6.13866E-11
 -1       709-1.96452E+04-4.05395E+05-1.95242E+04-3.53591E+04 1.72572E-10-4.71670E-11
 -1       710-2.18925E+04-4.10333E+05-2.02031E+04-3.67379E+04-5.86381E-11 1.03382E-10
 -1       711-2.41852E+04-4.15713E+05-2.10309E+04-3.76158E+04-4.19420E-10-6.25717E-11
 -1       712-2.65150E+04-4.21642E+05-2.19988E+04-3.79586E+04-3.55890E-10-9.36312E-11
 -1       713-2.88669E+04-4.28230E+05-2.31008E+04-3.77174E+04-2.08208E-12-1.93032E-11
 -1       714-3.12211E+04-4.35593E+05-2.43326E+04-3.68312E+04-7.39628E-10-1.12375E-10
 -1       715-3.35537E+04-4.43852E+05-2.56910E+04-3.52271E+04 3.11619E-10 1.28901E-10
 -1       716-3.58385E+04-4.53131E+05-2.71736E+04-3.28209E+04-2.64058E-10-2.69485E-11
 -1       717-3.80485E+04-4.63552E+05-2.87784E+04-2.95161E+04-5.11465E-10-1.10375E-10
 -1       718-4.01576E+04-4.75238E+05-3.05035E+04-2.52025E+04 2.61756E-10-2.70659E-11
 -1       719-4.21443E+04-4.88302E+05-3.23472E+04-1.97540E+04 1.05883E-10 3.49415E-11
 -1       720-4.39956E+04-5.02844E+05-3.43079E+04-1.30247E+04 1.38469E-10 4.30768E-11
 -1       721-4.57132E+04-5.18944E+05-3.63844E+04-4.84336E+03 5.42899E-10 5.60306E-11
 -1       722-4.73219E+04-5.36652E+05-3.85762E+04 4.99597E+03-1.62924E-11 5.56806E-12
 -1       723-4.88799E+04-5.55974E+05-4.08845E+04 1.67474E+04 4.44177E-10-4.98510E-11
 -1       724-5.04911E+04-5.76864E+05-4.33132E+04 3.07343E+04-1.13624E-10-3.99244E-11
 -1       725-5.23171E+04-5.99217E+05-4.58705E+04 4.73798E+04-7.90860E-10-3.97091E-11
 -1       726-5.45868E+04-6.22862E+05-4.85717E+04 6.72510E+04 1.39860E-10 3.74006E-11
 -1       727-5.75932E+04-6.47589E+05-5.14416E+04 9.11184E+04-1.89962E-10 9.67972E-11
 -1       728-6.16684E+04-6.73200E+05-5.45188E+04 1.20029E+05 4.00933E-10-1.40521E-10
 -1       729-6.71179E+04-6.99636E+05-5.78608E+04 1.55382E+05 4.24833E-11 1.94108E-10
 -1       730-7.40962E+04-7.27189E+05-6.15489E+04 1.98973E+05 6.26547E-10-3.05969E-11
 -1       731-8.17396E+04-7.76000E+05-6.75430E+04 2.27166E+05-1.35101E-09 1.49531E-10
 -1       801-2.82656E+03-3.57596E+05-4.05049E+04-3.91379E+03 5.83997E-10 6.50053E-11
 -1       802-5.25198E+03-3.64549E+05-3.59527E+04-7.37052E+03-2.63662E-09-5.15765E-10
 -1       803-9.57185E+03-3.70636E+05-3.32745E+04-1.35949E+04 3.78654E-10 1.68429E-10
 -1       804-1.32808E+04-3.75983E+05-3.15847E+04-1.85242E+04-2.09124E-10-5.52963E-11
 -1       805-1.66190E+04-3.80915E+05-3.05819E+04-2.24928E+04 6.62781E-10 1.93099E-10
 -1       806-1.97297E+04-3.85663E+05-3.00818E+04-2.57241E+04-6.66700E-10-1.64574E-10
 -1       807-2.27055E+04-3.90398E+05-2.99663E+04-2.83633E+04 5.42558E-12-2.09205E-12
 -1       808-2.56070E+04-3.95258E+05-3.01578E+04-3.04980E+04 1.48142E-10 2.42737E-11
 -1       809-2.84727E+04-4.00362E+05-3.06038E+04-3.21733E+04 6.00513E-10 1.90782E-10
 -1       810-3.13232E+04-4.05826E+05-3.12683E+04-3.34031E+04 1.90085E-10 1.45837E-11
 -1       811-3.41654E+04-4.11763E+05-3.21258E+04-3.41783E+04-2.92790E-10-3.10353E-11
 -1       812-3.69951E+04-4.18288E+05-3.31580E+04-3.44721E+04 8.38149E-10 1.91882E-10
 -1       813-3.97993E+04-4.25523E+05-3.43516E+04-3.42436E+04-1.77743E-10-9.69958E-11
 -1       814-4.25581E+04-4.33593E+05-3.56962E+04-3.34395E+04-2.75464E-10-1.49117E-11
 -1       815-4.52458E+04-4.42627E+05-3.71840E+04-3.19948E+04 2.82485E-10 1.38368E-10
 -1       816-4.78327E+04-4.52759E+05-3.88084E+04-2.98326E+04 1.74047E-10 9.52854E-11
 -1       817-5.02863E+04-4.64125E+05-4.05641E+04-2.68631E+04-1.99574E-10-9.73428E-11
 -1       818-5.25730E+04-4.76862E+05-4.24462E+04-2.29814E+04 2.93155E-10 1.83514E-11
 -1       819-5.46605E+04-4.91105E+05-4.44507E+04-1.80648E+04 3.58258E-10 1.57606E-10
 -1       820-5.65209E+04-5.06984E+05-4.65738E+04-1.19675E+04-6.17029E-10-2.39863E-10
 -1       821-5.81341E+04-5.24621E+05-4.88124E+04-4.51423E+03 2.83372E-10 4.61261E-11
 -1       822-5.94930E+04-5.44123E+05-5.11645E+04 4.50921E+03-4.16614E-10-1.91617E-11
 -1       823-6.06080E+04-5.65582E+05-5.36294E+04 1.53698E+04-1.72090E-10-1.57741E-10
 -1       824-6.15116E+04-5.89068E+05-5.62088E+04 2.84055E+04 1.14289E-10 5.67887E-11
 -1       825-6.22615E+04-6.14638E+05-5.89075E+04 4.40500E+04 5.93300E-10 8.49123E-11
 -1       826-6.29378E+04-6.42338E+05-6.17350E+04 6.28641E+04-5.38437E-10-1.15800E-10
 -1       827-6.36311E+04-6.72238E+05-6.47072E+04 8.55727E+04 3.34477E-10 1.92053E-10
 -1       828-6.44154E+04-7.04478E+05-6.78477E+04 1.13103E+05-3.71879E-10-9.56651E-11
 -1       829-6.52996E+04-7.39351E+05-7.11901E+04 1.46613E+05-3.55389E-10-6.98623E-11
 -1       830-6.61561E+04-7.77420E+05-7.47791E+04 1.87489E+05-9.33030E-10-9.13539E-12
 -1       831-7.05937E+04-8.34855E+05-8.05859E+04 2.13875E+05-1.64028E-10-1.36928E-10
 -1       901-3.83514E+03-3.47608E+05-5.52401E+04-3.41933E+03-2.10359E-10-5.94371E-11
 -1       902-6.95854E+03-3.55529E+05-4.89966E+04-6.46166E+03 1.83411E-09 4.14746E-10
 -1       903-1.26203E+04-3.62552E+05-4.52751E+04-1.19493E+04-1.33303E-09-2.33588E-10
 -1       904-1.73911E+04-3.68692E+05-4.28674E+04-1.63259E+04 9.07358E-10 1.00666E-10
 -1       905-2.16205E+04-3.74296E+05-4.13664E+04-1.98644E+04-5.55440E-10-1.32899E-10
 -1       906-2.55098E+04-3.79623E+05-4.05231E+04-2.27478E+04-2.91976E-10-7.82778E-11
 -1       907-2.91818E+04-3.84875E+05-4.01780E+04-2.50976E+04-5.01475E-10-1.08885E-10
 -1       908-3.27138E+04-3.90216E+05-4.02253E+04-2.69898E+04 5.02151E-10 1.61519E-10
 -1       909-3.61537E+04-3.95791E+05-4.05925E+04-2.84668E+04-3.07220E-10-3.71436E-12
 -1       910-3.95283E+04-4.01732E+05-4.12289E+04-2.95444E+04-2.97565E-10-1.91358E-10
 -1       911-4.28487E+04-4.08166E+05-4.20983E+04-3.02185E+04 4.33513E-10 4.20950E-11
 -1       912-4.61133E+04-4.15222E+05-4.31739E+04-3.04687E+04-4.80885E-10-6.69177E-11
 -1       913-4.93103E+04-4.23029E+05-4.44357E+04-3.02613E+04-7.66283E-10-1.96284E-10
 -1       914-5.24193E+04-4.31723E+05-4.58683E+04-2.95510E+04 6.03800E-10 1.19510E-10
 -1       915-5.54127E+04-4.41441E+05-4.74594E+04-2.82806E+04 2.97151E-10-2.88590E-11
 -1       916-5.82570E+04-4.52328E+05-4.91990E+04-2.63816E+04 1.10025E-10-1.73234E-11
 -1       917-6.09137E+04-4.64535E+05-5.10787E+04-2.37720E+04 1.24142E-11-1.90834E-11
 -1       918-6.33403E+04-4.78214E+05-5.30909E+04-2.03549E+04 2.74103E-10 5.32671E-11
 -1       919-6.54922E+04-4.93524E+05-5.52291E+04-1.60141E+04-5.14163E-10-2.24009E-10
 -1       920-6.73231E+04-5.10626E+05-5.74873E+04-1.06102E+04-5.13540E-11-2.61818E-11
 -1       921-6.87879E+04-5.29684E+05-5.98601E+04-3.97338E+03 6.20571E-11 2.62237E-12
 -1       922-6.98428E+04-5.50861E+05-6.23429E+04 4.10548E+03 3.23463E-10-1.13092E-11
 -1       923-7.04472E+04-5.74327E+05-6.49320E+04 1.38864E+04-3.77954E-10 4.03053E-11
 -1       924-7.05631E+04-6.00255E+05-6.76250E+04 2.56955E+04-2.29325E-10-8.73884E-11
 -1       925-7.01515E+04-6.28835E+05-7.04211E+04 3.99434E+04-9.54911E-10-2.31999E-10
 -1       926-6.91655E+04-6.60285E+05-7.33221E+04 5.71461E+04 5.33735E-10 2.42667E-10
 -1       927-6.75357E+04-6.94874E+05-7.63322E+04 7.79476E+04-2.56953E-11-1.19898E-10
 -1       928-6.51477E+04-7.32964E+05-7.94591E+04 1.03139E+05 5.26091E-10 7.09074E-11
 -1       929-6.18094E+04-7.75062E+05-8.27137E+04 1.33667E+05 2.67049E-10-3.72172E-11
 -1       930-5.72120E+04-8.21874E+05-8.61098E+04 1.70624E+05 8.19215E-10 1.15371E-10
 -1       931-5.87978E+04-8.86128E+05-9.16291E+04 1.94440E+05-1.52031E-10-7.13746E-11
 -1      1001-4.70352E+03-3.38946E+05-6.81354E+04-2.89035E+03-9.37980E-10-2.12917E-10
 -1      1002-8.42343E+03-3.47647E+05-6.04361E+04-5.47782E+03 3.61302E-10-1.26177E-11
 -1      1003-1.52355E+04-3.55444E+05-5.58095E+04-1.01498E+04-7.54274E-11-1.05291E-10
 -1      1004-2.09113E+04-3.62255E+05-5.27746E+04-1.38968E+04-4.29052E-10 7.04757E-11
 -1      1005-2.58945E+04-3.68441E+05-5.08343E+04-1.69379E+04 3.03246E-10-3.05468E-11
 -1      1006-3.04382E+04-3.74281E+05-4.96848E+04-1.94203E+04-4.79583E-10-3.27855E-11
 -1      1007-3.46940E+04-3.79995E+05-4.91309E+04-2.14422E+04-3.29584E-10-8.22211E-11
 -1      1008-3.87552E+04-3.85768E+05-4.90429E+04-2.30669E+04 1.32795E-10-1.00424E-11
 -1      1009-4.26783E+04-3.91762E+05-4.93313E+04-2.43309E+04-1.03024E-09-2.39411E-10
 -1      1010-4.64954E+04-3.98123E+05-4.99331E+04-2.52493E+04 5.40911E-10 1.17407E-10
 -1      1011-5.02206E+04-4.04992E+05-5.08026E+04-2.58210E+04-3.62707E-10-6.25037E-11
 -1      1012-5.38536E+04-4.12507E+05-5.19061E+04-2.60305E+04 6.85586E-10 1.73491E-10
 -1      1013-5.73832E+04-4.20808E+05-5.32177E+04-2.58508E+04-9.54313E-11-4.68063E-11
 -1      1014-6.07878E+04-4.30038E+05-5.47177E+04-2.52439E+04-3.26390E-11-7.72579E-12
 -1      1015-6.40377E+04-4.40346E+05-5.63900E+04-2.41614E+04-9.54573E-10-2.30521E-10
 -1      1016-6.70951E+04-4.51887E+05-5.82215E+04-2.25437E+04 4.44613E-10 1.25031E-10
 -1      1017-6.99151E+04-4.64824E+05-6.02009E+04-2.03189E+04-2.29073E-10 1.49874E-11
 -1      1018-7.24459E+04-4.79327E+05-6.23184E+04-1.74002E+04-7.53445E-10-1.08751E-10
 -1      1019-7.46294E+04-4.95578E+05-6.45651E+04-1.36830E+04-1.05657E-10-2.87182E-11
 -1      1020-7.64008E+04-5.13766E+05-6.69325E+04-9.04018E+03-2.27018E-10-8.93573E-12
 -1      1021-7.76885E+04-5.34095E+05-6.94128E+04-3.31616E+03-2.46449E-10-2.62426E-11
 -1      1022-7.84135E+04-5.56781E+05-7.19984E+04 3.68067E+03 4.70775E-10 3.62428E-11
 -1      1023-7.84867E+04-5.82059E+05-7.46820E+04 1.21875E+04-5.95769E-10-1.53732E-10
 -1      1024-7.78062E+04-6.10189E+05-7.74563E+04 2.24987E+04 3.34366E-10 9.00496E-11
 -1      1025-7.62508E+04-6.41468E+05-8.03146E+04 3.49788E+04-5.51627E-10-7.95806E-11
 -1      1026-7.36706E+04-6.76240E+05-8.32501E+04 5.00765E+04 3.02063E-10 7.02411E-11
 -1      1027-6.98737E+04-7.14920E+05-8.62559E+04 6.83382E+04-1.01274E-09-2.16579E-10
 -1      1028-6.46077E+04-7.58022E+05-8.93247E+04 9.04175E+04-5.73357E-10-2.14513E-11
 -1      1029-5.75388E+04-8.06188E+05-9.24482E+04 1.17078E+05 1.30502E-09 2.15073E-10
 -1      1030-4.82300E+04-8.60220E+05-9.56158E+04 1.49184E+05 9.86062E-11 4.93994E-11
 -1      1031-4.73582E+04-9.29942E+05-1.00821E+05 1.69850E+05 6.86837E-10 1.21110E-10
 -1      1101-5.42345E+03-3.31719E+05-7.89755E+04-2.33661E+03 5.88044E-10 4.05423E-11
 -1      1102-9.63553E+03-3.41035E+05-7.00700E+04-4.43884E+03 1.29039E-09 2.77743E-10
 -1      1103-1.73991E+04-3.49452E+05-6.46888E+04-8.23696E+03-1.00461E-09-1.24178E-10
 -1      1104-2.38209E+04-3.56809E+05-6.11278E+04-1.12963E+04 6.27400E-10 8.88568E-11
 -1      1105-2.94218E+04-3.63479E+05-5.88166E+04-1.37873E+04 1.21362E-09 1.90492E-10
 -1      1106-3.44991E+04-3.69750E+05-5.74062E+04-1.58243E+04 5.35633E-10 1.37543E-10
 -1      1107-3.92295E+04-3.75857E+05-5.66721E+04-1.74842E+04-4.54084E-11-2.15557E-11
 -1      1108-4.37204E+04-3.81999E+05-5.64647E+04-1.88169E+04-4.59537E-10-9.44679E-11
 -1      1109-4.80364E+04-3.88350E+05-5.66807E+04-1.98518E+04 5.43515E-12 1.07185E-11
 -1      1110-5.22140E+04-3.95067E+05-5.72470E+04-2.06021E+04 6.90693E-10 1.12133E-10
 -1      1111-5.62694E+04-4.02301E+05-5.81101E+04-2.10677E+04-1.44208E-11 3.98498E-11
 -1      1112-6.02036E+04-4.10201E+05-5.92304E+04-2.12372E+04-3.75785E-10-1.51932E-10
 -1      1113-6.40047E+04-4.18913E+05-6.05776E+04-2.10895E+04 4.68804E-10 1.74253E-10
 -1      1114-6.76503E+04-4.28590E+05-6.21279E+04-2.05942E+04 6.11227E-10 1.22135E-10
 -1      1115-7.11077E+04-4.39389E+05-6.38624E+04-1.97117E+04-2.91449E-10-1.04478E-10
 -1      1116-7.43351E+04-4.51476E+05-6.57651E+04-1.83927E+04 1.59684E-10 1.51143E-11
 -1      1117-7.72811E+04-4.65025E+05-6.78225E+04-1.65769E+04 2.05611E-10 2.18669E-11
 -1      1118-7.98849E+04-4.80223E+05-7.00226E+04-1.41909E+04 3.77278E-11-4.63770E-11
 -1      1119-8.20754E+04-4.97271E+05-7.23543E+04-1.11455E+04-1.98043E-10 4.05173E-12
 -1      1120-8.37702E+04-5.16387E+05-7.48070E+04-7.33170E+03 3.13668E-10 1.16698E-10
 -1      1121-8.48739E+04-5.37806E+05-7.73704E+04-2.61601E+03 2.91447E-10 3.56006E-11
 -1      1122-8.52752E+04-5.61789E+05-8.00338E+04 3.16577E+03-1.43393E-10-8.25840E-11
 -1      1123-8.48434E+04-5.88627E+05-8.27862E+04 1.02158E+04 7.34360E-10 1.74943E-10
 -1      1124-8.34232E+04-6.18648E+05-8.56160E+04 1.87826E+04-8.60710E-10-6.24947E-11
 -1      1125-8.08269E+04-6.52230E+05-8.85103E+04 2.91700E+04 7.09373E-10 1.06910E-10
 -1      1126-7.68247E+04-6.89812E+05-9.14547E+04 4.17463E+04-5.83045E-10-8.12216E-11
 -1      1127-7.11328E+04-7.31914E+05-9.44325E+04 5.69527E+04 4.43342E-10 9.79184E-11
 -1      1128-6.33981E+04-7.79153E+05-9.74241E+04 7.53084E+04 8.18045E-11-1.67602E-11
 -1      1129-5.31837E+04-8.32267E+05-1.00406E+05 9.74123E+04-3.68634E-10-3.25220E-11
 -1      1130-3.99548E+04-8.92130E+05-1.03348E+05 1.23940E+05-4.59152E-10-1.09578E-10
 -1      1131-3.70430E+04-9.66204E+05-1.08256E+05 1.41000E+05 2.75400E-10 7.63810E-11
 -1      1201-5.98891E+03-3.26013E+05-8.75861E+04-1.76556E+03-1.19726E-09-8.58396E-11
 -1      1202-1.05863E+04-3.35793E+05-7.77339E+04-3.36020E+03-6.47084E-10-1.29016E-10
 -1      1203-1.90964E+04-3.44684E+05-7.17575E+04-6.24223E+03 1.32637E-09 1.67104E-10
 -1      1204-2.61022E+04-3.52465E+05-6.77796E+04-8.57110E+03-1.72419E-10-3.54479E-11
 -1      1205-3.21850E+04-3.59512E+05-6.51731E+04-1.04722E+04-5.53955E-10-6.68744E-11
 -1      1206-3.76767E+04-3.66125E+05-6.35534E+04-1.20293E+04 1.45010E-10 9.14461E-12
 -1      1207-4.27745E+04-3.72547E+05-6.26734E+04-1.32990E+04 2.64303E-10 3.69303E-11
 -1      1208-4.75976E+04-3.78985E+05-6.23680E+04-1.43183E+04 8.00967E-11-6.52471E-11
 -1      1209-5.22174E+04-3.85621E+05-6.25230E+04-1.51092E+04 1.97629E-10 3.62150E-11
 -1      1210-5.66740E+04-3.92622E+05-6.30572E+04-1.56818E+04 2.60321E-10 3.09300E-11
 -1      1211-6.09854E+04-4.00148E+05-6.39114E+04-1.60366E+04 3.35560E-10 4.91835E-11
 -1      1212-6.51531E+04-4.08352E+05-6.50412E+04-1.61655E+04-8.98775E-10-9.83941E-11
 -1      1213-6.91649E+04-4.17390E+05-6.64128E+04-1.60528E+04 2.84883E-10 4.85427E-11
 -1      1214-7.29967E+04-4.27420E+05-6.79994E+04-1.56755E+04-1.17318E-10-1.09499E-11
 -1      1215-7.66136E+04-4.38607E+05-6.97795E+04-1.50036E+04-1.74803E-10-3.81305E-11
 -1      1216-7.99696E+04-4.51125E+05-7.17351E+04-1.39988E+04-6.54670E-10-3.49513E-11
 -1      1217-8.30079E+04-4.65161E+05-7.38509E+04-1.26144E+04 6.57913E-11-1.57676E-12
 -1      1218-8.56594E+04-4.80914E+05-7.61129E+04-1.07929E+04 5.15875E-10 2.14731E-10
 -1      1219-8.78421E+04-4.98602E+05-7.85082E+04-8.46392E+03-6.71387E-11-5.27680E-11
 -1      1220-8.94582E+04-5.18463E+05-8.10244E+04-5.54169E+03-6.16165E-11-8.67834E-11
 -1      1221-9.03923E+04-5.40762E+05-8.36488E+04-1.92075E+03 1.61943E-10 6.15358E-11
 -1      1222-9.05070E+04-5.65794E+05-8.63683E+04 2.52809E+03-6.42119E-10-2.08283E-10
 -1      1223-8.96380E+04-5.93893E+05-8.91686E+04 7.96317E+03 3.76632E-11 2.05108E-11
 -1      1224-8.75884E+04-6.25438E+05-9.20341E+04 1.45776E+04-2.38134E-10 1.00359E-10
 -1      1225-8.41199E+04-6.60867E+05-9.49469E+04 2.26054E+04 1.10751E-10-8.10495E-11
 -1      1226-7.89439E+04-7.00688E+05-9.78861E+04 3.23273E+04-6.68091E-10-5.89237E-11
 -1      1227-7.17095E+04-7.45492E+05-1.00827E+05 4.40755E+04 1.00547E-09 1.45128E-10
 -1      1228-6.19915E+04-7.95971E+05-1.03741E+05 5.82380E+04-6.06478E-10-1.05247E-10
 -1      1229-4.92777E+04-8.52931E+05-1.06592E+05 7.52595E+04-4.60087E-10-6.74028E-11
 -1      1230-3.29576E+04-9.17304E+05-1.09337E+05 9.56423E+04-2.57784E-10-1.39679E-11
 -1      1231-2.84399E+04-9.94719E+05-1.13994E+05 1.08743E+05 3.11623E-10 5.66818E-11
 -1      1301-6.39562E+03-3.21893E+05-9.38322E+04-1.18289E+03 4.38517E-10 1.09718E-10
 -1      1302-1.12697E+04-3.31996E+05-8.32997E+04-2.25425E+03 1.06614E-10 3.37985E-11
 -1      1303-2.03164E+04-3.41223E+05-7.68939E+04-4.19089E+03-1.38997E-10-5.11623E-11
 -1      1304-2.77416E+04-3.49304E+05-7.26143E+04-5.75929E+03-3.58097E-10 1.69016E-11
 -1      1305-3.41693E+04-3.56623E+05-6.97931E+04-7.04188E+03-6.56205E-10-4.95747E-11
 -1      1306-3.99570E+04-3.63483E+05-6.80208E+04-8.09376E+03 4.01132E-10 3.72171E-11
 -1      1307-4.53165E+04-3.70133E+05-6.70337E+04-8.95206E+03 5.23548E-10 1.13823E-10
 -1      1308-5.03760E+04-3.76786E+05-6.66556E+04-9.64113E+03 7.55799E-11 2.32794E-11
 -1      1309-5.52118E+04-3.83630E+05-6.67645E+04-1.01756E+04 2.04980E-10 5.95901E-11
 -1      1310-5.98668E+04-3.90839E+05-6.72736E+04-1.05624E+04-4.05088E-10-7.87223E-11
 -1      1311-6.43604E+04-3.98577E+05-6.81192E+04-1.08019E+04-6.93185E-10-4.08286E-11
 -1      1312-6.86944E+04-4.07002E+05-6.92540E+04-1.08889E+04 3.55003E-10 6.82039E-12
 -1      1313-7.28560E+04-4.16275E+05-7.06412E+04-1.08129E+04-8.59197E-10-1.20185E-10
 -1      1314-7.68200E+04-4.26560E+05-7.22520E+04-1.05587E+04-1.74076E-10-2.98631E-11
 -1      1315-8.05494E+04-4.38028E+05-7.40633E+04-1.01057E+04 4.34489E-10 2.60031E-11
 -1      1316-8.39951E+04-4.50860E+05-7.60554E+04-9.42813E+03-1.17277E-10-2.27617E-11
 -1      1317-8.70958E+04-4.65249E+05-7.82115E+04-8.49384E+03 1.26241E-10 2.08149E-11
 -1      1318-8.97761E+04-4.81406E+05-8.05164E+04-7.26335E+03-4.30835E-10-5.10013E-11
 -1      1319-9.19453E+04-4.99561E+05-8.29558E+04-5.68823E+03 3.51427E-10 2.41964E-12
 -1      1320-9.34943E+04-5.19969E+05-8.55157E+04-3.70921E+03-2.09724E-10 1.59534E-11
 -1      1321-9.42925E+04-5.42914E+05-8.81817E+04-1.25356E+03-3.07884E-10-1.05204E-10
 -1      1322-9.41832E+04-5.68717E+05-9.09387E+04 1.76760E+03-7.78241E-11 1.02768E-10
 -1      1323-9.29781E+04-5.97741E+05-9.37700E+04 5.46285E+03 1.77345E-10-5.13397E-11
 -1      1324-9.04505E+04-6.30402E+05-9.66568E+04 9.96386E+03 2.71071E-10 3.85457E-12
 -1      1325-8.63269E+04-6.67179E+05-9.95775E+04 1.54292E+04-4.05543E-10 8.22940E-12
 -1      1326-8.02781E+04-7.08625E+05-1.02507E+05 2.20478E+04 3.86294E-10 2.52608E-13
 -1      1327-7.19079E+04-7.55380E+05-1.05414E+05 3.00419E+04 2.34670E-10 9.64018E-12
 -1      1328-6.07419E+04-8.08185E+05-1.08263E+05 3.96693E+04-1.11485E-10 2.82335E-11
 -1      1329-4.62160E+04-8.67894E+05-1.11011E+05 5.12256E+04-1.75409E-10-2.08163E-11
 -1      1330-2.76643E+04-9.35485E+05-1.13605E+05 6.50453E+04-7.93781E-11-4.76591E-11
 -1      1331-2.19888E+04-1.01527E+06-1.18071E+05 7.39247E+04 4.79993E-10 2.91180E-10
 -1      1401-6.64072E+03-3.19403E+05-9.76181E+04-5.93129E+02-3.88447E-10-1.84173E-11
 -1      1402-1.16813E+04-3.29698E+05-8.66758E+04-1.13123E+03-6.13232E-10 1.05037E-11
 -1      1403-2.10514E+04-3.39124E+05-8.00107E+04-2.10401E+03-4.06353E-10-4.65258E-11
 -1      1404-2.87290E+04-3.47385E+05-7.55485E+04-2.89285E+03-2.51624E-10 8.87288E-11
 -1      1405-3.53642E+04-3.54866E+05-7.25972E+04-3.53864E+03 3.99123E-10 4.78398E-11
 -1      1406-4.13295E+04-3.61875E+05-7.07320E+04-4.06866E+03-5.96622E-10 1.50164E-11
 -1      1407-4.68458E+04-3.68664E+05-6.96795E+04-4.50135E+03-6.34137E-10-9.05745E-11
 -1      1408-5.20467E+04-3.75448E+05-6.92567E+04-4.84877E+03-5.95704E-11 1.52362E-11
 -1      1409-5.70117E+04-3.82419E+05-6.93370E+04-5.11825E+03-1.18150E-10 5.78965E-11
 -1      1410-6.17854E+04-3.89754E+05-6.98300E+04-5.31321E+03-1.99803E-10-5.94494E-12
 -1      1411-6.63880E+04-3.97620E+05-7.06698E+04-5.43390E+03-4.40898E-10-3.38794E-11
 -1      1412-7.08215E+04-4.06179E+05-7.18067E+04-5.47775E+03-1.26983E-10-2.99589E-12
 -1      1413-7.50727E+04-4.15595E+05-7.32026E+04-5.43953E+03 4.31648E-10 4.09229E-11
 -1      1414-7.91157E+04-4.26035E+05-7.48275E+04-5.31157E+03-7.05610E-10-3.35941E-11
 -1      1415-8.29120E+04-4.37673E+05-7.66569E+04-5.08354E+03 1.21517E-11 2.79996E-11
 -1      1416-8.64105E+04-4.50694E+05-7.86703E+04-4.74236E+03-4.68154E-10-1.52461E-11
 -1      1417-8.95471E+04-4.65298E+05-8.08501E+04-4.27169E+03-7.21448E-10-3.36651E-11
 -1      1418-9.22423E+04-4.81701E+05-8.31802E+04-3.65144E+03-1.86002E-10-9.15683E-11
 -1      1419-9.44001E+04-5.00141E+05-8.56453E+04-2.85690E+03-1.50853E-10 6.99640E-11
 -1      1420-9.59043E+04-5.20882E+05-8.82307E+04-1.85786E+03-1.26050E-10 3.88161E-11
 -1      1421-9.66149E+04-5.44222E+05-9.09208E+04-6.17214E+02-3.73812E-10-3.55880E-11
 -1      1422-9.63635E+04-5.70496E+05-9.36993E+04 9.10275E+02-2.98003E-10-8.21083E-11
 -1      1423-9.49471E+04-6.00085E+05-9.65478E+04 2.77975E+03-5.49111E-11-2.22458E-12
 -1      1424-9.21215E+04-6.33427E+05-9.94457E+04 5.05792E+03-4.54722E-10-5.36807E-11
 -1      1425-8.75924E+04-6.71024E+05-1.02369E+05 7.82471E+03-1.18608E-10-1.92319E-12
 -1      1426-8.10068E+04-7.13455E+05-1.05289E+05 1.11751E+04-2.99904E-10-2.54143E-11
 -1      1427-7.19422E+04-7.61389E+05-1.08173E+05 1.52203E+04-7.93000E-10-7.41223E-11
 -1      1428-5.98956E+04-8.15594E+05-1.10980E+05 2.00893E+04 4.68824E-10 6.55420E-11
 -1      1429-4.42719E+04-8.76954E+05-1.13662E+05 2.59295E+04-3.85829E-10-1.10632E-10
 -1      1430-2.43714E+04-9.46475E+05-1.16161E+05 3.29087E+04 5.50071E-10 6.14406E-11
 -1      1431-1.79967E+04-1.02768E+06-1.20510E+05 3.73918E+04-1.99448E-10 6.56111E-12
 -1      1501-6.72260E+03-3.18570E+05-9.88864E+04-3.42664E+03 7.06349E-11-1.95185E-10
 -1      1502-1.18188E+04-3.28928E+05-8.78072E+04-3.44833E+03 3.39311E-10 6.26331E-11
 -1      1503-2.12969E+04-3.38420E+05-8.10555E+04-3.51830E+03-2.17848E-10-1.91352E-11
 -1      1504-2.90589E+04-3.46741E+05-7.65322E+04-3.62395E+03 2.25874E-09 9.90290E-11
 -1      1505-3.57633E+04-3.54277E+05-7.35373E+04-3.75766E+03-4.24190E-10-1.34623E-10
 -1      1506-4.17877E+04-3.61336E+05-7.16409E+04-3.91456E+03-7.80210E-10 6.38725E-11
 -1      1507-4.73563E+04-3.68171E+05-7.05663E+04-4.09139E+03 1.37118E-09 5.76968E-12
 -1      1508-5.26042E+04-3.74999E+05-7.01285E+04-4.28576E+03-7.61950E-10-1.01394E-11
 -1      1509-5.76123E+04-3.82013E+05-7.01991E+04-4.49583E+03 7.99100E-10 2.79574E-12
 -1      1510-6.24255E+04-3.89390E+05-7.06866E+04-4.72002E+03-9.37651E-10-4.44431E-11
 -1      1511-6.70644E+04-3.97299E+05-7.15243E+04-4.95682E+03 1.10897E-09 4.96977E-12
 -1      1512-7.15309E+04-4.05903E+05-7.26618E+04-5.20475E+03-2.70027E-10 3.05329E-11
 -1      1513-7.58119E+04-4.15366E+05-7.40606E+04-5.46221E+03-1.16563E-09-5.41360E-11
 -1      1514-7.98812E+04-4.25858E+05-7.56900E+04-5.72746E+03 3.17781E-10 2.18981E-11
 -1      1515-8.36996E+04-4.37553E+05-7.75253E+04-5.99846E+03 3.46625E-11 4.94203E-11
 -1      1516-8.72156E+04-4.50638E+05-7.95458E+04-6.27289E+03-4.39634E-10-1.21154E-11
 -1      1517-9.03639E+04-4.65314E+05-8.17333E+04-6.54791E+03 3.78645E-10-7.95266E-11
 -1      1518-9.30637E+04-4.81799E+05-8.40717E+04-6.82009E+03-3.70632E-10 2.01191E-11
 -1      1519-9.52171E+04-5.00335E+05-8.65454E+04-7.08516E+03 1.48226E-10 7.59234E-11
 -1      1520-9.67056E+04-5.21189E+05-8.91391E+04-7.33782E+03-2.95182E-10-1.96005E-10
 -1      1521-9.73859E+04-5.44661E+05-9.18371E+04-7.57136E+03 7.87642E-10 1.05332E-10
 -1      1522-9.70858E+04-5.71094E+05-9.46225E+04-7.77740E+03-5.45875E-10-5.48626E-11
 -1      1523-9.55975E+04-6.00873E+05-9.74765E+04-7.94537E+03 4.32403E-11-1.41171E-11
 -1      1524-9.26706E+04-6.34443E+05-1.00378E+05-8.06212E+03 3.26669E-10-4.90032E-11
 -1      1525-8.80044E+04-6.72315E+05-1.03302E+05-8.11146E+03 6.98592E-10 5.98691E-11
 -1      1526-8.12377E+04-7.15076E+05-1.06219E+05-8.07353E+03 5.79223E-10 9.46952E-13
 -1      1527-7.19395E+04-7.63404E+05-1.09094E+05-7.92446E+03-7.89728E-10-2.06613E-11
 -1      1528-5.95974E+04-8.18077E+05-1.11887E+05-7.63581E+03 3.92122E-10-4.38647E-11
 -1      1529-4.36061E+04-8.79987E+05-1.14546E+05-7.17418E+03 1.59419E-10 5.01026E-11
 -1      1530-2.32544E+04-9.50153E+05-1.17013E+05-6.50066E+03-9.66523E-10 1.03000E-10
 -1      1531-1.66458E+04-1.03184E+06-1.21321E+05-5.73840E+03 4.74035E-10-2.34493E-10
 -3
    1PSTEP                        19          10           1          
  100CL  110 1.000000000         496                     0   10           1
 -4  DISP        4    1
 -5  D1          1    2    1    0
 -5  D2          1    2    2    0
 -5  D3          1    2    3    0
 -5  ALL         1    2    0    0    1ALL
 -1         1 1.93124E-08 1.14636E-07 1.18250E-24
 -1         2 2.01259E-08 1.16259E-07 1.23231E-24
 -1         3 2.12377E-08 1.17788E-07 1.30039E-24
 -1         4 2.25741E-08 1.19252E-07 1.38222E-24
 -1         5 2.41013E-08 1.20678E-07 1.47573E-24
 -1         6 2.58041E-08 1.22100E-07 1.57999E-24
 -1         7 2.76757E-08 1.23553E-07 1.69459E-24
 -1         8 2.97137E-08 1.25077E-07 1.81938E-24
 -1         9 3.19178E-08 1.26710E-07 1.95434E-24
 -1        10 3.42889E-08 1.28497E-07 2.09952E-24
 -1        11 3.68281E-08 1.30481E-07 2.25499E-24
 -1        12 3.95361E-08 1.32709E-07 2.42081E-24
 -1        13 4.24129E-08 1.35228E-07 2.59695E-24
 -1        14 4.54573E-08 1.38093E-07 2.78336E-24
 -1        15 4.86661E-08 1.41355E-07 2.97984E-24
 -1        16 5.20338E-08 1.45075E-07 3.18605E-24
 -1        17 5.55515E-08 1.49311E-07 3.40144E-24
 -1        18 5.92063E-08 1.54129E-07 3.62522E-24
 -1        19 6.29799E-08 1.59591E-07 3.85628E-24
 -1        20 6.68478E-08 1.65766E-07 4.09311E-24
 -1        21 7.07775E-08 1.72717E-07 4.33373E-24
 -1        22 7.47268E-08 1.80505E-07 4.57555E-24
 -1        23 7.86423E-08 1.89183E-07 4.81529E-24
 -1        24 8.24575E-08 1.98788E-07 5.04890E-24
 -1        25 8.60913E-08 2.09334E-07 5.27140E-24
 -1        26 8.94476E-08 2.20794E-07 5.47690E-24
 -1        27 9.24170E-08 2.33081E-07 5.65872E-24
 -1        28 9.48839E-08 2.46014E-07 5.80977E-24
 -1        29 9.67429E-08 2.59259E-07 5.92360E-24
 -1        30 9.79367E-08 2.72238E-07 5.99669E-24
 -1        31 9.85680E-08 2.84212E-07 6.03535E-24
 -1       101 1.41335E-08 1.00861E-07 8.65396E-25
 -1       102 1.51370E-08 1.02525E-07 9.26844E-25
 -1       103 1.62947E-08 1.04043E-07 9.97730E-25
 -1       104 1.75798E-08 1.05453E-07 1.07642E-24
 -1       105 1.89712E-08 1.06795E-07 1.16161E-24
 -1       106 2.04527E-08 1.08110E-07 1.25233E-24
 -1       107 2.20130E-08 1.09440E-07 1.34786E-24
 -1       108 2.36438E-08 1.10827E-07 1.44772E-24
 -1       109 2.53390E-08 1.12314E-07 1.55151E-24
 -1       110 2.70935E-08 1.13944E-07 1.65895E-24
 -1       111 2.89028E-08 1.15764E-07 1.76973E-24
 -1       112 3.07620E-08 1.17821E-07 1.88357E-24
 -1       113 3.26658E-08 1.20168E-07 2.00014E-24
 -1       114 3.46080E-08 1.22857E-07 2.11906E-24
 -1       115 3.65813E-08 1.25947E-07 2.23988E-24
 -1       116 3.85769E-08 1.29497E-07 2.36208E-24
 -1       117 4.05850E-08 1.33572E-07 2.48503E-24
 -1       118 4.25940E-08 1.38240E-07 2.60804E-24
 -1       119 4.45911E-08 1.43570E-07 2.73033E-24
 -1       120 4.65624E-08 1.49633E-07 2.85103E-24
 -1       121 4.84935E-08 1.56503E-07 2.96927E-24
 -1       122 5.03698E-08 1.64247E-07 3.08416E-24
 -1       123 5.21779E-08 1.72927E-07 3.19487E-24
 -1       124 5.39065E-08 1.82595E-07 3.30071E-24
 -1       125 5.55479E-08 1.93279E-07 3.40122E-24
 -1       126 5.70993E-08 2.04978E-07 3.49621E-24
 -1       127 5.85615E-08 2.17646E-07 3.58574E-24
 -1       128 5.99347E-08 2.31167E-07 3.66982E-24
 -1       129 6.12027E-08 2.45333E-07 3.74746E-24
 -1       130 6.22973E-08 2.59798E-07 3.81448E-24
 -1       131 6.30892E-08 2.73678E-07 3.86297E-24
 -1       201 1.23563E-08 9.20361E-08 7.56582E-25
 -1       202 1.31204E-08 9.37623E-08 8.03369E-25
 -1       203 1.40882E-08 9.53077E-08 8.62627E-25
 -1       204 1.51876E-08 9.67165E-08 9.29939E-25
 -1       205 1.63832E-08 9.80446E-08 1.00315E-24
 -1       206 1.76548E-08 9.93382E-08 1.08101E-24
 -1       207 1.89886E-08 1.00640E-07 1.16268E-24
 -1       208 2.03753E-08 1.01990E-07 1.24759E-24
 -1       209 2.18077E-08 1.03429E-07 1.33529E-24
 -1       210 2.32803E-08 1.04999E-07 1.42546E-24
 -1       211 2.47883E-08 1.06740E-07 1.51780E-24
 -1       212 2.63273E-08 1.08699E-07 1.61203E-24
 -1       213 2.78930E-08 1.10921E-07 1.70790E-24
 -1       214 2.94806E-08 1.13456E-07 1.80511E-24
 -1       215 3.10851E-08 1.16356E-07 1.90335E-24
 -1       216 3.27009E-08 1.19676E-07 2.00229E-24
 -1       217 3.43219E-08 1.23475E-07 2.10154E-24
 -1       218 3.59412E-08 1.27815E-07 2.20069E-24
 -1       219 3.75518E-08 1.32759E-07 2.29931E-24
 -1       220 3.91463E-08 1.38375E-07 2.39694E-24
 -1       221 4.07171E-08 1.44730E-07 2.49312E-24
 -1       222 4.22573E-08 1.51892E-07 2.58742E-24
 -1       223 4.37599E-08 1.59924E-07 2.67944E-24
 -1       224 4.52191E-08 1.68885E-07 2.76878E-24
 -1       225 4.66286E-08 1.78827E-07 2.85509E-24
 -1       226 4.79803E-08 1.89785E-07 2.93785E-24
 -1       227 4.92589E-08 2.01780E-07 3.01614E-24
 -1       228 5.04303E-08 2.14817E-07 3.08786E-24
 -1       229 5.14137E-08 2.28896E-07 3.14808E-24
 -1       230 5.20159E-08 2.44059E-07 3.18495E-24
 -1       231 5.15832E-08 2.60720E-07 3.15846E-24
 -1       301 1.01997E-08 8.34088E-08 6.24532E-25
 -1       302 1.09443E-08 8.52413E-08 6.70121E-25
 -1       303 1.17962E-08 8.67910E-08 7.22285E-25
 -1       304 1.27441E-08 8.81845E-08 7.80326E-25
 -1       305 1.37654E-08 8.94854E-08 8.42861E-25
 -1       306 1.48434E-08 9.07447E-08 9.08866E-25
 -1       307 1.59661E-08 9.20052E-08 9.77609E-25
 -1       308 1.71247E-08 9.33066E-08 1.04855E-24
 -1       309 1.83124E-08 9.46871E-08 1.12128E-24
 -1       310 1.95241E-08 9.61848E-08 1.19547E-24
 -1       311 2.07554E-08 9.78389E-08 1.27086E-24
 -1       312 2.20024E-08 9.96897E-08 1.34722E-24
 -1       313 2.32619E-08 1.01780E-07 1.42434E-24
 -1       314 2.45306E-08 1.04154E-07 1.50201E-24
 -1       315 2.58051E-08 1.06859E-07 1.58006E-24
 -1       316 2.70824E-08 1.09946E-07 1.65826E-24
 -1       317 2.83591E-08 1.13467E-07 1.73644E-24
 -1       318 2.96319E-08 1.17480E-07 1.81437E-24
 -1       319 3.08975E-08 1.22043E-07 1.89186E-24
 -1       320 3.21527E-08 1.27217E-07 1.96872E-24
 -1       321 3.33944E-08 1.33067E-07 2.04475E-24
 -1       322 3.46193E-08 1.39657E-07 2.11975E-24
 -1       323 3.58236E-08 1.47055E-07 2.19349E-24
 -1       324 3.70023E-08 1.55323E-07 2.26566E-24
 -1       325 3.81472E-08 1.64528E-07 2.33577E-24
 -1       326 3.92430E-08 1.74733E-07 2.40286E-24
 -1       327 4.02606E-08 1.86002E-07 2.46517E-24
 -1       328 4.11432E-08 1.98416E-07 2.51921E-24
 -1       329 4.17818E-08 2.12090E-07 2.55831E-24
 -1       330 4.19612E-08 2.27251E-07 2.56930E-24
 -1       331 4.13260E-08 2.44385E-07 2.53040E-24
 -1       401 7.94991E-09 7.50959E-08 4.86776E-25
 -1       402 8.66702E-09 7.69469E-08 5.30684E-25
 -1       403 9.44821E-09 7.84940E-08 5.78517E-25
 -1       404 1.02791E-08 7.98594E-08 6.29391E-25
 -1       405 1.11519E-08 8.11217E-08 6.82833E-25
 -1       406 1.20578E-08 8.23349E-08 7.38300E-25
 -1       407 1.29890E-08 8.35427E-08 7.95318E-25
 -1       408 1.39390E-08 8.47839E-08 8.53492E-25
 -1       409 1.49028E-08 8.60945E-08 9.12503E-25
 -1       410 1.58760E-08 8.75100E-08 9.72091E-25
 -1       411 1.68551E-08 8.90661E-08 1.03204E-24
 -1       412 1.78374E-08 9.07996E-08 1.09219E-24
 -1       413 1.88204E-08 9.27491E-08 1.15238E-24
 -1       414 1.98022E-08 9.49549E-08 1.21249E-24
 -1       415 2.07811E-08 9.74599E-08 1.27243E-24
 -1       416 2.17556E-08 1.00309E-07 1.33210E-24
 -1       417 2.27248E-08 1.03551E-07 1.39145E-24
 -1       418 2.36877E-08 1.07237E-07 1.45041E-24
 -1       419 2.46438E-08 1.11421E-07 1.50895E-24
 -1       420 2.55926E-08 1.16159E-07 1.56704E-24
 -1       421 2.65335E-08 1.21513E-07 1.62466E-24
 -1       422 2.74658E-08 1.27544E-07 1.68174E-24
 -1       423 2.83871E-08 1.34319E-07 1.73815E-24
 -1       424 2.92930E-08 1.41907E-07 1.79362E-24
 -1       425 3.01739E-08 1.50382E-07 1.84756E-24
 -1       426 3.10116E-08 1.59824E-07 1.89885E-24
 -1       427 3.17728E-08 1.70327E-07 1.94546E-24
 -1       428 3.23990E-08 1.82011E-07 1.98380E-24
 -1       429 3.27913E-08 1.95043E-07 2.00782E-24
 -1       430 3.27936E-08 2.09684E-07 2.00797E-24
 -1       431 3.21806E-08 2.26370E-07 1.97043E-24
 -1       501 5.69536E-09 6.70993E-08 3.48729E-25
 -1       502 6.38895E-09 6.89086E-08 3.91198E-25
 -1       503 7.10610E-09 7.04195E-08 4.35109E-25
 -1       504 7.83936E-09 7.17421E-08 4.80007E-25
 -1       505 8.58493E-09 7.29535E-08 5.25658E-25
 -1       506 9.33972E-09 7.41095E-08 5.71874E-25
 -1       507 1.01002E-08 7.52539E-08 6.18437E-25
 -1       508 1.08628E-08 7.64241E-08 6.65132E-25
 -1       509 1.16243E-08 7.76543E-08 7.11761E-25
 -1       510 1.23820E-08 7.89772E-08 7.58155E-25
 -1       511 1.31336E-08 8.04256E-08 8.04176E-25
 -1       512 1.38774E-08 8.20329E-08 8.49715E-25
 -1       513 1.46119E-08 8.38336E-08 8.94693E-25
 -1       514 1.53365E-08 8.58641E-08 9.39060E-25
 -1       515 1.60508E-08 8.81629E-08 9.82794E-25
 -1       516 1.67548E-08 9.07706E-08 1.02590E-24
 -1       517 1.74492E-08 9.37307E-08 1.06842E-24
 -1       518 1.81350E-08 9.70893E-08 1.11041E-24
 -1       519 1.88134E-08 1.00896E-07 1.15195E-24
 -1       520 1.94862E-08 1.05203E-07 1.19314E-24
 -1       521 2.01546E-08 1.10067E-07 1.23407E-24
 -1       522 2.08197E-08 1.15548E-07 1.27480E-24
 -1       523 2.14809E-08 1.21711E-07 1.31528E-24
 -1       524 2.21348E-08 1.28626E-07 1.35532E-24
 -1       525 2.27734E-08 1.36373E-07 1.39442E-24
 -1       526 2.33803E-08 1.45041E-07 1.43159E-24
 -1       527 2.39270E-08 1.54738E-07 1.46506E-24
 -1       528 2.43660E-08 1.65599E-07 1.49194E-24
 -1       529 2.46248E-08 1.77806E-07 1.50779E-24
 -1       530 2.46005E-08 1.91610E-07 1.50629E-24
 -1       531 2.41633E-08 2.07369E-07 1.47952E-24
 -1       601 3.50176E-09 5.94088E-08 2.14414E-25
 -1       602 4.17240E-09 6.11320E-08 2.55478E-25
 -1       603 4.83108E-09 6.25741E-08 2.95808E-25
 -1       604 5.47718E-09 6.38329E-08 3.35369E-25
 -1       605 6.11109E-09 6.49791E-08 3.74184E-25
 -1       606 6.73298E-09 6.60663E-08 4.12262E-25
 -1       607 7.34237E-09 6.71366E-08 4.49576E-25
 -1       608 7.93826E-09 6.82257E-08 4.86062E-25
 -1       609 8.51940E-09 6.93655E-08 5.21645E-25
 -1       610 9.08459E-09 7.05864E-08 5.56252E-25
 -1       611 9.63283E-09 7.19180E-08 5.89821E-25
 -1       612 1.01635E-08 7.33903E-08 6.22314E-25
 -1       613 1.06764E-08 7.50345E-08 6.53717E-25
 -1       614 1.11717E-08 7.68828E-08 6.84048E-25
 -1       615 1.16504E-08 7.89696E-08 7.13355E-25
 -1       616 1.21136E-08 8.13313E-08 7.41721E-25
 -1       617 1.25635E-08 8.40067E-08 7.69266E-25
 -1       618 1.30024E-08 8.70374E-08 7.96138E-25
 -1       619 1.34332E-08 9.04681E-08 8.22518E-25
 -1       620 1.38592E-08 9.43471E-08 8.48604E-25
 -1       621 1.42837E-08 9.87265E-08 8.74594E-25
 -1       622 1.47094E-08 1.03663E-07 9.00660E-25
 -1       623 1.51379E-08 1.09220E-07 9.26900E-25
 -1       624 1.55686E-08 1.15466E-07 9.53271E-25
 -1       625 1.59969E-08 1.22482E-07 9.79497E-25
 -1       626 1.64124E-08 1.30360E-07 1.00493E-24
 -1       627 1.67957E-08 1.39210E-07 1.02841E-24
 -1       628 1.71163E-08 1.49170E-07 1.04804E-24
 -1       629 1.73295E-08 1.60416E-07 1.06109E-24
 -1       630 1.73764E-08 1.73174E-07 1.06396E-24
 -1       631 1.71897E-08 1.87738E-07 1.05253E-24
 -1       701 1.41900E-09 5.20083E-08 8.68861E-26
 -1       702 2.06801E-09 5.36106E-08 1.26625E-25
 -1       703 2.67310E-09 5.49557E-08 1.63675E-25
 -1       704 3.24087E-09 5.61293E-08 1.98440E-25
 -1       705 3.77568E-09 5.71945E-08 2.31186E-25
 -1       706 4.28039E-09 5.82003E-08 2.62090E-25
 -1       707 4.75676E-09 5.91857E-08 2.91258E-25
 -1       708 5.20571E-09 6.01838E-08 3.18747E-25
 -1       709 5.62763E-09 6.12240E-08 3.44581E-25
 -1       710 6.02271E-09 6.23340E-08 3.68772E-25
 -1       711 6.39118E-09 6.35404E-08 3.91334E-25
 -1       712 6.73347E-09 6.48700E-08 4.12292E-25
 -1       713 7.05037E-09 6.63503E-08 4.31696E-25
 -1       714 7.34316E-09 6.80102E-08 4.49624E-25
 -1       715 7.61366E-09 6.98797E-08 4.66187E-25
 -1       716 7.86430E-09 7.19912E-08 4.81533E-25
 -1       717 8.09816E-09 7.43791E-08 4.95853E-25
 -1       718 8.31897E-09 7.70805E-08 5.09373E-25
 -1       719 8.53106E-09 8.01355E-08 5.22359E-25
 -1       720 8.73920E-09 8.35879E-08 5.35104E-25
 -1       721 8.94847E-09 8.74855E-08 5.47917E-25
 -1       722 9.16381E-09 9.18811E-08 5.61103E-25
 -1       723 9.38956E-09 9.68338E-08 5.74926E-25
 -1       724 9.62873E-09 1.02410E-07 5.89570E-25
 -1       725 9.88196E-09 1.08688E-07 6.05076E-25
 -1       726 1.01464E-08 1.15756E-07 6.21268E-25
 -1       727 1.04145E-08 1.23721E-07 6.37682E-25
 -1       728 1.06727E-08 1.32716E-07 6.53492E-25
 -1       729 1.09015E-08 1.42899E-07 6.67504E-25
 -1       730 1.10769E-08 1.54469E-07 6.78245E-25
 -1       731 1.11749E-08 1.67671E-07 6.84244E-25
 -1       801-5.11003E-10 4.48769E-08-3.12888E-26
 -1       802 1.17885E-10 4.63304E-08 7.21814E-27
 -1       803 6.74659E-10 4.75546E-08 4.13096E-26
 -1       804 1.17258E-09 4.86233E-08 7.17977E-26
 -1       805 1.61985E-09 4.95919E-08 9.91837E-26
 -1       806 2.02176E-09 5.05035E-08 1.23793E-25
 -1       807 2.38187E-09 5.13932E-08 1.45843E-25
 -1       808 2.70258E-09 5.22908E-08 1.65480E-25
 -1       809 2.98559E-09 5.32228E-08 1.82809E-25
 -1       810 3.23225E-09 5.42137E-08 1.97912E-25
 -1       811 3.44380E-09 5.52872E-08 2.10865E-25
 -1       812 3.62163E-09 5.64669E-08 2.21754E-25
 -1       813 3.76744E-09 5.77770E-08 2.30682E-25
 -1       814 3.88339E-09 5.92426E-08 2.37781E-25
 -1       815 3.97219E-09 6.08900E-08 2.43218E-25
 -1       816 4.03722E-09 6.27473E-08 2.47200E-25
 -1       817 4.08259E-09 6.48448E-08 2.49978E-25
 -1       818 4.11317E-09 6.72152E-08 2.51851E-25
 -1       819 4.13458E-09 6.98939E-08 2.53162E-25
 -1       820 4.15316E-09 7.29201E-08 2.54299E-25
 -1       821 4.17584E-09 7.63367E-08 2.55688E-25
 -1       822 4.20999E-09 8.01918E-08 2.57779E-25
 -1       823 4.26306E-09 8.45396E-08 2.61029E-25
 -1       824 4.34231E-09 8.94419E-08 2.65881E-25
 -1       825 4.45430E-09 9.49702E-08 2.72738E-25
 -1       826 4.60446E-09 1.01208E-07 2.81933E-25
 -1       827 4.79676E-09 1.08255E-07 2.93707E-25
 -1       828 5.03372E-09 1.16229E-07 3.08216E-25
 -1       829 5.31714E-09 1.25273E-07 3.25570E-25
 -1       830 5.64999E-09 1.35557E-07 3.45950E-25
 -1       831 6.03985E-09 1.47284E-07 3.69822E-25
 -1       901-2.25273E-09 3.79894E-08-1.37935E-25
 -1       902-1.64211E-09 3.92716E-08-1.00547E-25
 -1       903-1.12805E-09 4.03548E-08-6.90707E-26
 -1       904-6.91332E-10 4.13016E-08-4.23305E-26
 -1       905-3.20281E-10 4.21592E-08-1.96109E-26
 -1       906-7.37988E-12 4.29646E-08-4.51872E-28
 -1       907 2.52456E-10 4.37483E-08 1.54580E-26
 -1       908 4.62833E-10 4.45364E-08 2.83394E-26
 -1       909 6.26477E-10 4.53519E-08 3.83594E-26
 -1       910 7.45646E-10 4.62163E-08 4.56562E-26
 -1       911 8.22438E-10 4.71501E-08 5.03582E-26
 -1       912 8.59035E-10 4.81736E-08 5.25990E-26
 -1       913 8.57901E-10 4.93077E-08 5.25295E-26
 -1       914 8.21951E-10 5.05739E-08 5.03283E-26
 -1       915 7.54691E-10 5.19946E-08 4.62100E-26
 -1       916 6.60340E-10 5.35942E-08 4.04328E-26
 -1       917 5.43918E-10 5.53986E-08 3.33042E-26
 -1       918 4.11343E-10 5.74360E-08 2.51867E-26
 -1       919 2.69487E-10 5.97371E-08 1.65008E-26
 -1       920 1.26203E-10 6.23362E-08 7.72746E-27
 -1       921-9.66024E-12 6.52709E-08-5.91499E-28
 -1       922-1.28283E-10 6.85840E-08-7.85483E-27
 -1       923-2.18917E-10 7.23237E-08-1.34044E-26
 -1       924-2.69935E-10 7.65452E-08-1.65282E-26
 -1       925-2.68855E-10 8.13127E-08-1.64621E-26
 -1       926-2.02267E-10 8.67009E-08-1.23849E-26
 -1       927-5.55687E-11 9.27979E-08-3.40249E-27
 -1       928 1.87641E-10 9.97076E-08 1.14893E-26
 -1       929 5.46694E-10 1.07553E-07 3.34742E-26
 -1       930 1.04567E-09 1.16478E-07 6.40267E-26
 -1       931 1.71601E-09 1.26650E-07 1.05072E-25
 -1      1001-3.77610E-09 3.13168E-08-2.31212E-25
 -1      1002-3.18158E-09 3.24100E-08-1.94809E-25
 -1      1003-2.70429E-09 3.33360E-08-1.65584E-25
 -1      1004-2.31990E-09 3.41463E-08-1.42048E-25
 -1      1005-2.01369E-09 3.48802E-08-1.23299E-25
 -1      1006-1.77621E-09 3.55686E-08-1.08758E-25
 -1      1007-1.60105E-09 3.62369E-08-9.80329E-26
 -1      1008-1.48363E-09 3.69072E-08-9.08430E-26
 -1      1009-1.42039E-09 3.75989E-08-8.69709E-26
 -1      1010-1.40836E-09 3.83301E-08-8.62344E-26
 -1      1011-1.44477E-09 3.91181E-08-8.84637E-26
 -1      1012-1.52680E-09 3.99799E-08-9.34863E-26
 -1      1013-1.65134E-09 4.09330E-08-1.01112E-25
 -1      1014-1.81486E-09 4.19952E-08-1.11124E-25
 -1      1015-2.01316E-09 4.31855E-08-1.23266E-25
 -1      1016-2.24131E-09 4.45241E-08-1.37236E-25
 -1      1017-2.49347E-09 4.60326E-08-1.52676E-25
 -1      1018-2.76275E-09 4.77347E-08-1.69164E-25
 -1      1019-3.04114E-09 4.96566E-08-1.86210E-25
 -1      1020-3.31934E-09 5.18270E-08-2.03244E-25
 -1      1021-3.58666E-09 5.42781E-08-2.19612E-25
 -1      1022-3.83089E-09 5.70464E-08-2.34567E-25
 -1      1023-4.03814E-09 6.01734E-08-2.47257E-25
 -1      1024-4.19263E-09 6.37067E-08-2.56716E-25
 -1      1025-4.27640E-09 6.77013E-08-2.61846E-25
 -1      1026-4.26892E-09 7.22215E-08-2.61387E-25
 -1      1027-4.14637E-09 7.73424E-08-2.53884E-25
 -1      1028-3.88080E-09 8.31518E-08-2.37623E-25
 -1      1029-3.43879E-09 8.97525E-08-2.10558E-25
 -1      1030-2.77970E-09 9.72635E-08-1.70202E-25
 -1      1031-1.85364E-09 1.05822E-07-1.13499E-25
 -1      1101-5.05607E-09 2.48276E-08-3.09585E-25
 -1      1102-4.47520E-09 2.57177E-08-2.74018E-25
 -1      1103-4.02842E-09 2.64734E-08-2.46661E-25
 -1      1104-3.68722E-09 2.71355E-08-2.25770E-25
 -1      1105-3.43434E-09 2.77352E-08-2.10286E-25
 -1      1106-3.25871E-09 2.82972E-08-1.99532E-25
 -1      1107-3.15281E-09 2.88420E-08-1.93048E-25
 -1      1108-3.11126E-09 2.93873E-08-1.90503E-25
 -1      1109-3.12985E-09 2.99487E-08-1.91642E-25
 -1      1110-3.20505E-09 3.05410E-08-1.96246E-25
 -1      1111-3.33357E-09 3.11779E-08-2.04116E-25
 -1      1112-3.51209E-09 3.18733E-08-2.15046E-25
 -1      1113-3.73701E-09 3.26410E-08-2.28818E-25
 -1      1114-4.00425E-09 3.34955E-08-2.45181E-25
 -1      1115-4.30909E-09 3.44520E-08-2.63847E-25
 -1      1116-4.64597E-09 3.55266E-08-2.84474E-25
 -1      1117-5.00835E-09 3.67368E-08-3.06663E-25
 -1      1118-5.38850E-09 3.81016E-08-3.29940E-25
 -1      1119-5.77738E-09 3.96422E-08-3.53751E-25
 -1      1120-6.16440E-09 4.13819E-08-3.77448E-25
 -1      1121-6.53719E-09 4.33470E-08-4.00274E-25
 -1      1122-6.88140E-09 4.55673E-08-4.21350E-25
 -1      1123-7.18032E-09 4.80766E-08-4.39653E-25
 -1      1124-7.41452E-09 5.09140E-08-4.53994E-25
 -1      1125-7.56135E-09 5.41246E-08-4.62984E-25
 -1      1126-7.59421E-09 5.77608E-08-4.64996E-25
 -1      1127-7.48178E-09 6.18837E-08-4.58112E-25
 -1      1128-7.18682E-09 6.65641E-08-4.40052E-25
 -1      1129-6.66485E-09 7.18845E-08-4.08091E-25
 -1      1130-5.86243E-09 7.79398E-08-3.58959E-25
 -1      1131-4.71533E-09 8.48383E-08-2.88721E-25
 -1      1201-6.07239E-09 1.84878E-08-3.71814E-25
 -1      1202-5.50243E-09 1.91641E-08-3.36916E-25
 -1      1203-5.07966E-09 1.97394E-08-3.11029E-25
 -1      1204-4.77230E-09 2.02439E-08-2.92209E-25
 -1      1205-4.56109E-09 2.07010E-08-2.79277E-25
 -1      1206-4.43367E-09 2.11292E-08-2.71475E-25
 -1      1207-4.38167E-09 2.15438E-08-2.68291E-25
 -1      1208-4.39905E-09 2.19581E-08-2.69355E-25
 -1      1209-4.48114E-09 2.23840E-08-2.74381E-25
 -1      1210-4.62395E-09 2.28325E-08-2.83126E-25
 -1      1211-4.82383E-09 2.33140E-08-2.95365E-25
 -1      1212-5.07707E-09 2.38390E-08-3.10871E-25
 -1      1213-5.37969E-09 2.44180E-08-3.29400E-25
 -1      1214-5.72723E-09 2.50617E-08-3.50680E-25
 -1      1215-6.11450E-09 2.57816E-08-3.74393E-25
 -1      1216-6.53548E-09 2.65897E-08-4.00170E-25
 -1      1217-6.98304E-09 2.74994E-08-4.27574E-25
 -1      1218-7.44877E-09 2.85250E-08-4.56090E-25
 -1      1219-7.92276E-09 2.96825E-08-4.85113E-25
 -1      1220-8.39333E-09 3.09895E-08-5.13926E-25
 -1      1221-8.84674E-09 3.24660E-08-5.41689E-25
 -1      1222-9.26683E-09 3.41347E-08-5.67411E-25
 -1      1223-9.63457E-09 3.60216E-08-5.89928E-25
 -1      1224-9.92757E-09 3.81563E-08-6.07869E-25
 -1      1225-1.01194E-08 4.05732E-08-6.19613E-25
 -1      1226-1.01787E-08 4.33122E-08-6.23242E-25
 -1      1227-1.00682E-08 4.64196E-08-6.16480E-25
 -1      1228-9.74379E-09 4.99489E-08-5.96615E-25
 -1      1229-9.15253E-09 5.39620E-08-5.60412E-25
 -1      1230-8.23140E-09 5.85298E-08-5.04011E-25
 -1      1231-6.90530E-09 6.37335E-08-4.22814E-25
 -1      1301-6.80942E-09 1.22614E-08-4.16943E-25
 -1      1302-6.24743E-09 1.27164E-08-3.82532E-25
 -1      1303-5.84195E-09 1.31039E-08-3.57704E-25
 -1      1304-5.55890E-09 1.34441E-08-3.40373E-25
 -1      1305-5.37756E-09 1.37523E-08-3.29269E-25
 -1      1306-5.28465E-09 1.40408E-08-3.23581E-25
 -1      1307-5.27116E-09 1.43201E-08-3.22755E-25
 -1      1308-5.33063E-09 1.45989E-08-3.26396E-25
 -1      1309-5.45799E-09 1.48851E-08-3.34195E-25
 -1      1310-5.64901E-09 1.51862E-08-3.45890E-25
 -1      1311-5.89972E-09 1.55091E-08-3.61241E-25
 -1      1312-6.20616E-09 1.58608E-08-3.80005E-25
 -1      1313-6.56410E-09 1.62483E-08-4.01922E-25
 -1      1314-6.96878E-09 1.66788E-08-4.26701E-25
 -1      1315-7.41471E-09 1.71599E-08-4.54005E-25
 -1      1316-7.89550E-09 1.76998E-08-4.83444E-25
 -1      1317-8.40360E-09 1.83073E-08-5.14555E-25
 -1      1318-8.93008E-09 1.89920E-08-5.46792E-25
 -1      1319-9.46439E-09 1.97646E-08-5.79508E-25
 -1      1320-9.99403E-09 2.06371E-08-6.11938E-25
 -1      1321-1.05042E-08 2.16228E-08-6.43177E-25
 -1      1322-1.09774E-08 2.27371E-08-6.72153E-25
 -1      1323-1.13930E-08 2.39974E-08-6.97595E-25
 -1      1324-1.17262E-08 2.54238E-08-7.17999E-25
 -1      1325-1.19479E-08 2.70395E-08-7.31576E-25
 -1      1326-1.20234E-08 2.88712E-08-7.36198E-25
 -1      1327-1.19113E-08 3.09501E-08-7.29336E-25
 -1      1328-1.15624E-08 3.33119E-08-7.07972E-25
 -1      1329-1.09180E-08 3.59979E-08-6.68515E-25
 -1      1330-9.90839E-09 3.90555E-08-6.06694E-25
 -1      1331-8.45075E-09 4.25387E-08-5.17442E-25
 -1      1401-7.25607E-09 6.11151E-09-4.44291E-25
 -1      1402-6.69893E-09 6.34023E-09-4.10178E-25
 -1      1403-6.30388E-09 6.53516E-09-3.85989E-25
 -1      1404-6.03546E-09 6.70634E-09-3.69553E-25
 -1      1405-5.87209E-09 6.86148E-09-3.59550E-25
 -1      1406-5.79991E-09 7.00672E-09-3.55130E-25
 -1      1407-5.80956E-09 7.14721E-09-3.55721E-25
 -1      1408-5.89426E-09 7.28738E-09-3.60908E-25
 -1      1409-6.04878E-09 7.43120E-09-3.70369E-25
 -1      1410-6.26867E-09 7.58237E-09-3.83833E-25
 -1      1411-6.54983E-09 7.74439E-09-4.01048E-25
 -1      1412-6.88814E-09 7.92074E-09-4.21763E-25
 -1      1413-7.27920E-09 8.11493E-09-4.45707E-25
 -1      1414-7.71808E-09 8.33059E-09-4.72580E-25
 -1      1415-8.19911E-09 8.57152E-09-5.02034E-25
 -1      1416-8.71568E-09 8.84181E-09-5.33664E-25
 -1      1417-9.25997E-09 9.14585E-09-5.66991E-25
 -1      1418-9.82275E-09 9.48851E-09-6.01450E-25
 -1      1419-1.03931E-08 9.87513E-09-6.36370E-25
 -1      1420-1.09579E-08 1.03117E-08-6.70955E-25
 -1      1421-1.15018E-08 1.08050E-08-7.04259E-25
 -1      1422-1.20065E-08 1.13628E-08-7.35160E-25
 -1      1423-1.24501E-08 1.19937E-08-7.62323E-25
 -1      1424-1.28067E-08 1.27079E-08-7.84161E-25
 -1      1425-1.30456E-08 1.35170E-08-7.98783E-25
 -1      1426-1.31297E-08 1.44346E-08-8.03937E-25
 -1      1427-1.30154E-08 1.54762E-08-7.96940E-25
 -1      1428-1.26505E-08 1.66598E-08-7.74595E-25
 -1      1429-1.19728E-08 1.80060E-08-7.33099E-25
 -1      1430-1.09086E-08 1.95384E-08-6.67938E-25
 -1      1431-9.37060E-09 2.12843E-08-5.73765E-25
 -1      1501-7.40568E-09 0.00000E+00-4.53452E-25
 -1      1502-6.85017E-09 0.00000E+00-4.19438E-25
 -1      1503-6.45861E-09 0.00000E+00-3.95463E-25
 -1      1504-6.19508E-09 0.00000E+00-3.79327E-25
 -1      1505-6.03771E-09 0.00000E+00-3.69691E-25
 -1      1506-5.97245E-09 0.00000E+00-3.65695E-25
 -1      1507-5.98980E-09 0.00000E+00-3.66758E-25
 -1      1508-6.08292E-09 0.00000E+00-3.72459E-25
 -1      1509-6.24649E-09 0.00000E+00-3.82474E-25
 -1      1510-6.47600E-09 0.00000E+00-3.96527E-25
 -1      1511-6.76730E-09 0.00000E+00-4.14364E-25
 -1      1512-7.11622E-09 0.00000E+00-4.35728E-25
 -1      1513-7.51830E-09 0.00000E+00-4.60348E-25
 -1      1514-7.96857E-09 0.00000E+00-4.87918E-25
 -1      1515-8.46129E-09 0.00000E+00-5.18088E-25
 -1      1516-8.98977E-09 0.00000E+00-5.50446E-25
 -1      1517-9.54611E-09 0.00000E+00-5.84511E-25
 -1      1518-1.01210E-08 0.00000E+00-6.19710E-25
 -1      1519-1.07032E-08 0.00000E+00-6.55362E-25
 -1      1520-1.12797E-08 0.00000E+00-6.90662E-25
 -1      1521-1.18348E-08 0.00000E+00-7.24651E-25
 -1      1522-1.23499E-08 0.00000E+00-7.56189E-25
 -1      1523-1.28028E-08 0.00000E+00-7.83920E-25
 -1      1524-1.31672E-08 0.00000E+00-8.06229E-25
 -1      1525-1.34115E-08 0.00000E+00-8.21190E-25
 -1      1526-1.34984E-08 0.00000E+00-8.26511E-25
 -1      1527-1.33832E-08 0.00000E+00-8.19456E-25
 -1      1528-1.30127E-08 0.00000E+00-7.96771E-25
 -1      1529-1.23236E-08 0.00000E+00-7.54581E-25
 -1      1530-1.12410E-08 0.00000E+00-6.88292E-25
 -1      1531-9.67598E-09 0.00000E+00-5.92463E-25
 -3
    1PSTEP                        20          10           1          
  100CL  110 1.000000000         496                     0   10           1
 -4  STRESS      6    1
 -5  SXX         1    4    1    1
 -5  SYY         1    4    2    2
 -5  SZZ         1    4    3    3
 -5  SXY         1    4    1    2
 -5  SYZ         1    4    2    3
 -5  SZX         1    4    3    1
 -1         1 3.57523E+04-4.63185E+05 2.56923E+05-4.76484E+03 8.06885E-10-3.73134E-10
 -1         2 3.72203E+04-4.74200E+05 2.13159E+05-3.99974E+03 3.53564E-09 1.00754E-10
 -1         3 6.41358E+04-4.71762E+05 1.95858E+05-6.96238E+03 2.15121E-09 8.33331E-10
 -1         4 8.64052E+04-4.70340E+05 1.85571E+05-1.01227E+04-1.53732E-09 5.05689E-10
 -1         5 1.07323E+05-4.68941E+05 1.80602E+05-1.31860E+04 3.36296E-09 8.77131E-11
 -1         6 1.28270E+05-4.67159E+05 1.79771E+05-1.59732E+04 1.83325E-09 2.74811E-10
 -1         7 1.49797E+05-4.64885E+05 1.82212E+05-1.84181E+04 2.29657E-10-2.43370E-10
 -1         8 1.72103E+05-4.62126E+05 1.87284E+05-2.05117E+04-2.38959E-09-4.51272E-10
 -1         9 1.95220E+05-4.58925E+05 1.94501E+05-2.22605E+04 6.53473E-10-2.48001E-10
 -1        10 2.19097E+05-4.55334E+05 2.03486E+05-2.36680E+04-2.00279E-09-1.82137E-10
 -1        11 2.43624E+05-4.51407E+05 2.13932E+05-2.47262E+04 1.20220E-09 3.33158E-10
 -1        12 2.68643E+05-4.47196E+05 2.25576E+05-2.54124E+04 2.11075E-09-4.08767E-11
 -1        13 2.93940E+05-4.42759E+05 2.38177E+05-2.56875E+04 2.10794E-10 3.25091E-10
 -1        14 3.19239E+05-4.38159E+05 2.51496E+05-2.54957E+04-1.04020E-09-7.99732E-10
 -1        15 3.44181E+05-4.33477E+05 2.65284E+05-2.47631E+04-1.13611E-10 4.00234E-10
 -1        16 3.68310E+05-4.28811E+05 2.79264E+05-2.33980E+04 1.22366E-09-7.50338E-10
 -1        17 3.91048E+05-4.24291E+05 2.93114E+05-2.12897E+04-5.47364E-11 3.23751E-10
 -1        18 4.11673E+05-4.20082E+05 3.06458E+05-1.83097E+04-6.00023E-10-4.76499E-10
 -1        19 4.29286E+05-4.16398E+05 3.18844E+05-1.43127E+04 4.73880E-10-1.29662E-10
 -1        20 4.42781E+05-4.13504E+05 3.29729E+05-9.14234E+03-2.38616E-09-7.40171E-10
 -1        21 4.50819E+05-4.11729E+05 3.38467E+05-2.64111E+03-2.23752E-09-8.13030E-10
 -1        22 4.51801E+05-4.11460E+05 3.44292E+05 5.32797E+03 1.99506E-10-4.10648E-10
 -1        23 4.43866E+05-4.13126E+05 3.46327E+05 1.48420E+04 2.87854E-10 2.92918E-10
 -1        24 4.24942E+05-4.17134E+05 3.43607E+05 2.58428E+04-2.92472E-09-7.52004E-10
 -1        25 3.92884E+05-4.23743E+05 3.35162E+05 3.79980E+04 2.78811E-09 1.50875E-09
 -1        26 3.45826E+05-4.32763E+05 3.20215E+05 5.04389E+04 1.81116E-09 4.88944E-10
 -1        27 2.82920E+05-4.42935E+05 2.98597E+05 6.12539E+04 2.81146E-10 3.28675E-10
 -1        28 2.05895E+05-4.50620E+05 2.71643E+05 6.65121E+04 1.46745E-09 8.25945E-10
 -1        29 1.22257E+05-4.47124E+05 2.44003E+05 5.84729E+04-1.91545E-09-2.75073E-10
 -1        30 5.41079E+04-4.12874E+05 2.28163E+05 2.76192E+04 2.35546E-09 7.63095E-10
 -1        31 4.84724E+04-3.33913E+05 2.42934E+05 6.89506E+03-1.11462E-09 4.65237E-10
 -1       101 1.42421E+04-4.96004E+05 1.13116E+05-1.33205E+03-7.16536E-10-2.61766E-11
 -1       102 1.62338E+04-4.97384E+05 9.53837E+04-5.42249E+03 1.42416E-09 8.68421E-11
 -1       103 2.71617E+04-4.96318E+05 8.68727E+04-1.19289E+04-2.26901E-09-7.53250E-10
 -1       104 3.63963E+04-4.96637E+05 8.14614E+04-1.76445E+04 7.61986E-10 1.61717E-10
 -1       105 4.41896E+04-4.97838E+05 7.79536E+04-2.26044E+04-2.53637E-09-3.14450E-10
 -1       106 5.08754E+04-4.99625E+05 7.56845E+04-2.68727E+04 1.23296E-10-1.77407E-10
 -1       107 5.67495E+04-5.01821E+05 7.42616E+04-3.05089E+04-8.53610E-10-3.54766E-10
 -1       108 6.20147E+04-5.04336E+05 7.34315E+04-3.35512E+04 1.53242E-10 1.02088E-10
 -1       109 6.67847E+04-5.07131E+05 7.30149E+04-3.60179E+04 1.27018E-09-1.20948E-11
 -1       110 7.11005E+04-5.10200E+05 7.28737E+04-3.79067E+04 1.03519E-09 9.40055E-11
 -1       111 7.49473E+04-5.13553E+05 7.28926E+04-3.91941E+04-6.23585E-10-2.47115E-10
 -1       112 7.82676E+04-5.17213E+05 7.29699E+04-3.98351E+04-1.24504E-09-4.99770E-10
 -1       113 8.09721E+04-5.21208E+05 7.30116E+04-3.97629E+04 1.06023E-10-7.27553E-11
 -1       114 8.29471E+04-5.25566E+05 7.29292E+04-3.88892E+04 2.72968E-10 2.72368E-10
 -1       115 8.40623E+04-5.30313E+05 7.26380E+04-3.71041E+04-2.08500E-10-4.28028E-10
 -1       116 8.41784E+04-5.35470E+05 7.20585E+04-3.42770E+04-8.69757E-10 1.49260E-10
 -1       117 8.31559E+04-5.41046E+05 7.11179E+04-3.02575E+04 9.10143E-10-1.36824E-10
 -1       118 8.08668E+04-5.47032E+05 6.97548E+04-2.48782E+04-8.67362E-10-2.31575E-10
 -1       119 7.72115E+04-5.53391E+05 6.79248E+04-1.79599E+04 5.33228E-10 1.37639E-10
 -1       120 7.21394E+04-5.60046E+05 6.56103E+04-9.32016E+03-3.38903E-10 1.47944E-10
 -1       121 6.56777E+04-5.66856E+05 6.28328E+04 1.21154E+03 6.40358E-10 2.67075E-10
 -1       122 5.79664E+04-5.73583E+05 5.96701E+04 1.37687E+04-4.64507E-11-2.99316E-10
 -1       123 4.92982E+04-5.79850E+05 5.62773E+04 2.84075E+04 9.55345E-10 2.36212E-10
 -1       124 4.01564E+04-5.85061E+05 5.29130E+04 4.50409E+04-5.15654E-10-9.89141E-11
 -1       125 3.12301E+04-5.88283E+05 4.99646E+04 6.33338E+04 3.84387E-11-2.55138E-10
 -1       126 2.33614E+04-5.88056E+05 4.79674E+04 8.25359E+04-5.67018E-10-1.56050E-10
 -1       127 1.73213E+04-5.82058E+05 4.75946E+04 1.01210E+05 9.69352E-10-5.18474E-11
 -1       128 1.32026E+04-5.66499E+05 4.95809E+04 1.16761E+05-1.04514E-09-4.33470E-10
 -1       129 9.12227E+03-5.34941E+05 5.45303E+04 1.24425E+05 9.22016E-11-6.85482E-11
 -1       130 2.03192E+03-4.77619E+05 6.33956E+04 1.09437E+05-4.38497E-10-2.67789E-11
 -1       131 1.61882E+04-3.42733E+05 8.66148E+04 8.11987E+04 9.08100E-10 3.62171E-11
 -1       201 5.93357E+03-4.80451E+05 7.58333E+04-2.82867E+03-1.54154E-09 4.14221E-11
 -1       202 1.16431E+04-4.75803E+05 6.61739E+04-8.36240E+03-9.30243E-10-2.23152E-10
 -1       203 2.14705E+04-4.74463E+05 6.07888E+04-1.62558E+04 9.45561E-10-5.43339E-11
 -1       204 2.80225E+04-4.74795E+05 5.71919E+04-2.30989E+04 2.19252E-10-6.29069E-11
 -1       205 3.29093E+04-4.75896E+05 5.47566E+04-2.89094E+04-1.18883E-11-1.32603E-10
 -1       206 3.67956E+04-4.77346E+05 5.31041E+04-3.39040E+04-4.64440E-10-3.62841E-11
 -1       207 4.00097E+04-4.78964E+05 5.19920E+04-3.81789E+04 1.29688E-09 1.26127E-10
 -1       208 4.27403E+04-4.80685E+05 5.12596E+04-4.17784E+04-3.80908E-10 5.50854E-11
 -1       209 4.50976E+04-4.82505E+05 5.07949E+04-4.47116E+04 4.60339E-11 2.49457E-10
 -1       210 4.71412E+04-4.84458E+05 5.05161E+04-4.69620E+04 2.65694E-11-8.51041E-11
 -1       211 4.88954E+04-4.86596E+05 5.03596E+04-4.84903E+04 8.21602E-10 1.98384E-10
 -1       212 5.03591E+04-4.88982E+05 5.02737E+04-4.92358E+04 2.99392E-10 5.98768E-11
 -1       213 5.15127E+04-4.91687E+05 5.02140E+04-4.91159E+04 2.58586E-10 5.13985E-11
 -1       214 5.23240E+04-4.94789E+05 5.01406E+04-4.80271E+04 1.40759E-10-2.13531E-11
 -1       215 5.27520E+04-4.98369E+05 5.00169E+04-4.58450E+04-3.64104E-10-2.70134E-12
 -1       216 5.27515E+04-5.02514E+05 4.98083E+04-4.24256E+04-7.20644E-10-1.17038E-10
 -1       217 5.22773E+04-5.07310E+05 4.94828E+04-3.76078E+04 7.10059E-10 2.15625E-10
 -1       218 5.12886E+04-5.12841E+05 4.90105E+04-3.12177E+04 1.76349E-10-4.33901E-11
 -1       219 4.97546E+04-5.19182E+05 4.83656E+04-2.30751E+04 2.10727E-10 2.87821E-11
 -1       220 4.76605E+04-5.26381E+05 4.75279E+04-1.30051E+04 3.30942E-10-6.97410E-11
 -1       221 4.50133E+04-5.34444E+05 4.64862E+04-8.55216E+02 8.48961E-10 1.62223E-10
 -1       222 4.18462E+04-5.43291E+05 4.52425E+04 1.34791E+04-9.23221E-10-3.14616E-10
 -1       223 3.82179E+04-5.52694E+05 4.38184E+04 3.00164E+04 1.10068E-10 4.78141E-11
 -1       224 3.41988E+04-5.62168E+05 4.22648E+04 4.86361E+04 1.92520E-09 2.41922E-10
 -1       225 2.98289E+04-5.70788E+05 4.06741E+04 6.90043E+04 6.15860E-10 3.21062E-11
 -1       226 2.50137E+04-5.76856E+05 3.91988E+04 9.04799E+04 3.87755E-10 6.98518E-11
 -1       227 1.92839E+04-5.77314E+05 3.80777E+04 1.12008E+05 4.65698E-10 9.16319E-11
 -1       228 1.12265E+04-5.66613E+05 3.76717E+04 1.32044E+05 3.81433E-10-3.93633E-11
 -1       229-2.96761E+03-5.34479E+05 3.84969E+04 1.48524E+05 4.86572E-11 1.18282E-10
 -1       230-3.84791E+04-4.57561E+05 4.10571E+04 1.60492E+05-3.13498E-10 1.32748E-10
 -1       231-5.50690E+04-3.14403E+05 5.04705E+04 1.52359E+05 4.35882E-10-4.76103E-10
 -1       301 4.34204E+03-4.68330E+05 5.54057E+04-5.52280E+03-8.58446E-10-8.01211E-11
 -1       302 7.37009E+03-4.64587E+05 4.84619E+04-9.87324E+03 1.56356E-09 2.13944E-10
 -1       303 1.33002E+04-4.64179E+05 4.41556E+04-1.81413E+04-3.63260E-10-8.81208E-11
 -1       304 1.81610E+04-4.65154E+05 4.13076E+04-2.47076E+04 1.37526E-10 8.62779E-11
 -1       305 2.18042E+04-4.66825E+05 3.93392E+04-3.03239E+04 4.34587E-10 5.62955E-11
 -1       306 2.45667E+04-4.68850E+05 3.79431E+04-3.51541E+04 1.85203E-10-6.16557E-11
 -1       307 2.66923E+04-4.71072E+05 3.69290E+04-3.92936E+04-1.52700E-10-2.18933E-11
 -1       308 2.83393E+04-4.73440E+05 3.61718E+04-4.27799E+04 5.97420E-10 3.42840E-12
 -1       309 2.96089E+04-4.75961E+05 3.55849E+04-4.56158E+04-6.48648E-10-1.33539E-10
 -1       310 3.05644E+04-4.78676E+05 3.51051E+04-4.77793E+04-3.12267E-10-7.69136E-11
 -1       311 3.12422E+04-4.81647E+05 3.46843E+04-4.92270E+04 5.61214E-10 9.65868E-12
 -1       312 3.16598E+04-4.84949E+05 3.42836E+04-4.98972E+04 3.10607E-10 1.60804E-10
 -1       313 3.18210E+04-4.88668E+05 3.38702E+04-4.97095E+04-3.44104E-10 9.48279E-11
 -1       314 3.17202E+04-4.92896E+05 3.34154E+04-4.85659E+04 1.10713E-10-3.83237E-12
 -1       315 3.13465E+04-4.97727E+05 3.28933E+04-4.63513E+04-3.67168E-11-8.68236E-11
 -1       316 3.06864E+04-5.03260E+05 3.22804E+04-4.29346E+04 7.09960E-10 1.30982E-10
 -1       317 2.97270E+04-5.09593E+05 3.15553E+04-3.81713E+04-7.81774E-10-2.60441E-10
 -1       318 2.84578E+04-5.16817E+05 3.06993E+04-3.19067E+04 1.50841E-10 4.00877E-12
 -1       319 2.68729E+04-5.25009E+05 2.96971E+04-2.39822E+04-5.03737E-10-1.50756E-10
 -1       320 2.49711E+04-5.34216E+05 2.85379E+04-1.42434E+04 8.30861E-10 1.52495E-10
 -1       321 2.27532E+04-5.44431E+05 2.72176E+04-2.55221E+03 1.84471E-10 2.59705E-11
 -1       322 2.02140E+04-5.55560E+05 2.57409E+04 1.11959E+04 5.83899E-10 1.78644E-10
 -1       323 1.73240E+04-5.67361E+05 2.41243E+04 2.70511E+04-1.76231E-09-3.98676E-10
 -1       324 1.39921E+04-5.79351E+05 2.24000E+04 4.49829E+04-6.78685E-10 1.04717E-10
 -1       325 9.99270E+03-5.90659E+05 2.06199E+04 6.48556E+04-3.77562E-10 9.66368E-11
 -1       326 4.82793E+03-5.99785E+05 1.88593E+04 8.64178E+04 2.81550E-10-4.32818E-13
 -1       327-2.53491E+03-6.04206E+05 1.72181E+04 1.09344E+05-2.90255E-10 1.48999E-10
 -1       328-1.41670E+04-5.99703E+05 1.58167E+04 1.33431E+05 1.77941E-09 8.36748E-12
 -1       329-3.43037E+04-5.79070E+05 1.47726E+04 1.59329E+05 3.63549E-10 7.19715E-11
 -1       330-6.93775E+04-5.29754E+05 1.43506E+04 1.90808E+05 9.18904E-10-1.05683E-10
 -1       331-9.02511E+04-4.82622E+05 1.38316E+04 2.09622E+05 7.57711E-10 2.39532E-10
 -1       401 2.55795E+03-4.52953E+05 3.43477E+04-5.71889E+03-1.26429E-10 2.45994E-11
 -1       402 4.13281E+03-4.53043E+05 2.99044E+04-1.05223E+04 6.02919E-11-5.55224E-11
 -1       403 7.38170E+03-4.53698E+05 2.71687E+04-1.89688E+04-4.10661E-10 3.50261E-11
 -1       404 9.88070E+03-4.55422E+05 2.52206E+04-2.55166E+04-8.87297E-10-1.84202E-10
 -1       405 1.18359E+04-4.57702E+05 2.38068E+04-3.09224E+04 4.39780E-10-8.14222E-11
 -1       406 1.32530E+04-4.60306E+05 2.27326E+04-3.55232E+04-6.75997E-10-4.64247E-11
 -1       407 1.42097E+04-4.63124E+05 2.18743E+04-3.94456E+04-4.75807E-10-1.01487E-10
 -1       408 1.47833E+04-4.66127E+05 2.11488E+04-4.27392E+04 5.98104E-10 2.02906E-11
 -1       409 1.50362E+04-4.69334E+05 2.04981E+04-4.54100E+04-6.47271E-10-7.24794E-11
 -1       410 1.50155E+04-4.72795E+05 1.98795E+04-4.74362E+04 2.28107E-10-7.04533E-11
 -1       411 1.47551E+04-4.76583E+05 1.92604E+04-4.87751E+04-2.30588E-10-3.08683E-11
 -1       412 1.42786E+04-4.80784E+05 1.86145E+04-4.93665E+04 2.48306E-11 1.76020E-10
 -1       413 1.36018E+04-4.85492E+05 1.79197E+04-4.91339E+04-3.44637E-10-1.51464E-10
 -1       414 1.27357E+04-4.90810E+05 1.71571E+04-4.79860E+04 9.79020E-11-3.40357E-11
 -1       415 1.16878E+04-4.96845E+05 1.63097E+04-4.58164E+04 4.00328E-10 2.08247E-10
 -1       416 1.04646E+04-5.03705E+05 1.53626E+04-4.25057E+04-5.91955E-10-2.09569E-10
 -1       417 9.07195E+03-5.11497E+05 1.43024E+04-3.79225E+04-7.23531E-11 2.45321E-10
 -1       418 7.51567E+03-5.20319E+05 1.31181E+04-3.19256E+04-6.91807E-10-2.34485E-10
 -1       419 5.80012E+03-5.30252E+05 1.18009E+04-2.43684E+04 4.74856E-10 1.65654E-10
 -1       420 3.92442E+03-5.41346E+05 1.03453E+04-1.51028E+04 9.12208E-10 1.09681E-10
 -1       421 1.87463E+03-5.53598E+05 8.74979E+03-3.98581E+03 8.50211E-11-5.33031E-11
 -1       422-3.90689E+02-5.66921E+05 7.01739E+03 9.11398E+03 1.28569E-10-5.83486E-11
 -1       423-2.96578E+03-5.81094E+05 5.15686E+03 2.43105E+04-3.98689E-10 1.89139E-10
 -1       424-6.04054E+03-5.95693E+05 3.18279E+03 4.16989E+04 7.69257E-10-8.62065E-11
 -1       425-9.97115E+03-6.09985E+05 1.11507E+03 6.13684E+04 4.35480E-11 2.10141E-11
 -1       426-1.53942E+04-6.22775E+05-1.02380E+03 8.34478E+04-8.79829E-10-7.05841E-11
 -1       427-2.34036E+04-6.32193E+05-3.21488E+03 1.08225E+05 1.12826E-09-1.06183E-10
 -1       428-3.58081E+04-6.35402E+05-5.45509E+03 1.36441E+05-7.72447E-10 1.85725E-10
 -1       429-5.52973E+04-6.28312E+05-7.76780E+03 1.69935E+05 7.32089E-10-1.15460E-10
 -1       430-8.54061E+04-6.06015E+05-1.02624E+04 2.13043E+05 9.11625E-10-1.58760E-10
 -1       431-1.05197E+05-6.03711E+05-1.47039E+04 2.40405E+05 4.51881E-11 2.19559E-10
 -1       501 1.01316E+03-4.37791E+05 1.32400E+04-5.58929E+03-2.78226E-09-4.97773E-10
 -1       502 1.30302E+03-4.40560E+05 1.13670E+04-1.03489E+04 1.28170E-09 1.21377E-10
 -1       503 2.19360E+03-4.42994E+05 1.01543E+04-1.88194E+04 6.46863E-10 1.57701E-10
 -1       504 2.70557E+03-4.45675E+05 9.20936E+03-2.53346E+04 8.27226E-10 8.07244E-11
 -1       505 2.96421E+03-4.48662E+05 8.42213E+03-3.05959E+04-8.25421E-10-1.63631E-10
 -1       506 2.98133E+03-4.51881E+05 7.72843E+03-3.49798E+04 3.00493E-10 2.10229E-10
 -1       507 2.74355E+03-4.55297E+05 7.07821E+03-3.86700E+04-5.02476E-10-6.25161E-11
 -1       508 2.25893E+03-4.58919E+05 6.43504E+03-4.17429E+04-3.97731E-10 3.52821E-11
 -1       509 1.54646E+03-4.62786E+05 5.77177E+03-4.42189E+04 7.97903E-12 7.47604E-11
 -1       510 6.28758E+02-4.66963E+05 5.06752E+03-4.60841E+04-3.69278E-11 4.91145E-11
 -1       511-4.71544E+02-4.71532E+05 4.30557E+03-4.73013E+04-3.64339E-11-7.49315E-11
 -1       512-1.73314E+03-4.76588E+05 3.47208E+03-4.78156E+04 1.99890E-10-4.43724E-11
 -1       513-3.13615E+03-4.82235E+05 2.55518E+03-4.75564E+04 2.43334E-10 2.02032E-10
 -1       514-4.66176E+03-4.88585E+05 1.54450E+03-4.64395E+04-6.05043E-10-1.69006E-10
 -1       515-6.29177E+03-4.95754E+05 4.30793E+02-4.43672E+04-2.83296E-10 2.69407E-11
 -1       516-8.00833E+03-5.03859E+05-7.94066E+02-4.12296E+04-2.28307E-10-2.02269E-12
 -1       517-9.79437E+03-5.13016E+05-2.13706E+03-3.69051E+04 9.16456E-11 6.77646E-11
 -1       518-1.16350E+04-5.23332E+05-3.60393E+03-3.12612E+04-1.99957E-10-4.70181E-11
 -1       519-1.35205E+04-5.34898E+05-5.19891E+03-2.41556E+04 3.81191E-10 4.32926E-12
 -1       520-1.54524E+04-5.47775E+05-6.92457E+03-1.54376E+04-2.67655E-10 3.21699E-11
 -1       521-1.74525E+04-5.61978E+05-8.78162E+03-4.94789E+03-4.57779E-10 4.78570E-11
 -1       522-1.95790E+04-5.77452E+05-1.07690E+04 7.48266E+03-2.85351E-10-7.20982E-11
 -1       523-2.19499E+04-5.94032E+05-1.28844E+04 2.20391E+04 2.42820E-10 1.02452E-11
 -1       524-2.47794E+04-6.11399E+05-1.51253E+04 3.89372E+04 2.42491E-10-6.81353E-11
 -1       525-2.84294E+04-6.29014E+05-1.74913E+04 5.84563E+04 3.21902E-10 1.04363E-10
 -1       526-3.34801E+04-6.46040E+05-1.99884E+04 8.10054E+04 9.42649E-10 8.15258E-11
 -1       527-4.08147E+04-6.61261E+05-2.26358E+04 1.07250E+05-1.33721E-09-9.54305E-11
 -1       528-5.16853E+04-6.73031E+05-2.54764E+04 1.38341E+05 1.11510E-09 1.47567E-10
 -1       529-6.76989E+04-6.79394E+05-2.85952E+04 1.76313E+05 8.60036E-10 7.98012E-11
 -1       530-9.05216E+04-6.78586E+05-3.21446E+04 2.24605E+05-6.74962E-10 4.21845E-11
 -1       531-1.06813E+05-7.02786E+05-3.81978E+04 2.55866E+05-9.99784E-10 9.84011E-11
 -1       601-4.86149E+02-4.23307E+05-7.32783E+03-5.26836E+03 1.69861E-09-9.37351E-11
 -1       602-1.30178E+03-4.28101E+05-6.71464E+03-9.82976E+03-3.54623E-10 9.08226E-11
 -1       603-2.51093E+03-4.32186E+05-6.44003E+03-1.79843E+04-2.91514E-10-4.01715E-11
 -1       604-3.74136E+03-4.36008E+05-6.39473E+03-2.43209E+04 3.97211E-10 2.52720E-10
 -1       605-4.98449E+03-4.39808E+05-6.52776E+03-2.93974E+04 1.68617E-10 1.07836E-10
 -1       606-6.27381E+03-4.43693E+05-6.80601E+03-3.35655E+04 2.75113E-10-4.60688E-11
 -1       607-7.64952E+03-4.47722E+05-7.21028E+03-3.70239E+04 6.18918E-10 1.62560E-10
 -1       608-9.14065E+03-4.51951E+05-7.73137E+03-3.98716E+04-9.96974E-10-2.70954E-10
 -1       609-1.07591E+04-4.56452E+05-8.36547E+03-4.21453E+04 2.15471E-10 9.63967E-11
 -1       610-1.25036E+04-4.61305E+05-9.11168E+03-4.38433E+04 2.42311E-10-2.75191E-13
 -1       611-1.43646E+04-4.66606E+05-9.97075E+03-4.49376E+04 4.72707E-11 4.85133E-11
 -1       612-1.63266E+04-4.72460E+05-1.09444E+04-4.53810E+04-8.11089E-11 1.01747E-10
 -1       613-1.83707E+04-4.78981E+05-1.20349E+04-4.51106E+04 2.62242E-10-9.15968E-11
 -1       614-2.04750E+04-4.86288E+05-1.32448E+04-4.40501E+04 2.84530E-11 5.62835E-11
 -1       615-2.26161E+04-4.94507E+05-1.45765E+04-4.21103E+04 3.06422E-10-3.34330E-11
 -1       616-2.47694E+04-5.03765E+05-1.60323E+04-3.91896E+04 8.04095E-10 1.04178E-10
 -1       617-2.69106E+04-5.14186E+05-1.76143E+04-3.51739E+04 1.17161E-11 3.89370E-11
 -1       618-2.90179E+04-5.25890E+05-1.93240E+04-2.99360E+04 1.87115E-10 1.24320E-10
 -1       619-3.10761E+04-5.38983E+05-2.11622E+04-2.33349E+04-3.43626E-10-1.43710E-10
 -1       620-3.30819E+04-5.53548E+05-2.31295E+04-1.52134E+04-1.58047E-10-1.64304E-10
 -1       621-3.50530E+04-5.69632E+05-2.52256E+04-5.39413E+03 4.21886E-11 1.21818E-10
 -1       622-3.70414E+04-5.87229E+05-2.74507E+04 6.32734E+03-1.17620E-10-6.79964E-11
 -1       623-3.91514E+04-6.06255E+05-2.98057E+04 2.01954E+04 2.08374E-10 9.70919E-11
 -1       624-4.15643E+04-6.26521E+05-3.22940E+04 3.65169E+04 2.86453E-10-1.53178E-10
 -1       625-4.45688E+04-6.47703E+05-3.49239E+04 5.56983E+04-4.86125E-10-7.83950E-11
 -1       626-4.85944E+04-6.69313E+05-3.77123E+04 7.83086E+04 1.75098E-10-6.50486E-11
 -1       627-5.42367E+04-6.90689E+05-4.06900E+04 1.05177E+05-4.59449E-10-5.37791E-11
 -1       628-6.22531E+04-7.11044E+05-4.39096E+04 1.37541E+05-1.03772E-09-5.79098E-11
 -1       629-7.34815E+04-7.29627E+05-4.74553E+04 1.77233E+05-1.09805E-09-8.71145E-11
 -1       630-8.86310E+04-7.46120E+05-5.14594E+04 2.26881E+05-2.73963E-10 2.38058E-10
 -1       631-1.00988E+05-7.87791E+05-5.80746E+04 2.59041E+05-2.23900E-09-1.74892E-10
 -1       701-1.87632E+03-4.09748E+05-2.68762E+04-4.84528E+03-5.21380E-10 4.43481E-11
 -1       702-3.68628E+03-4.16157E+05-2.39367E+04-9.08652E+03-6.25834E-10-8.16378E-11
 -1       703-6.79063E+03-4.21686E+05-2.22557E+04-1.67030E+04 4.06204E-10-1.08022E-10
 -1       704-9.55719E+03-4.26618E+05-2.12611E+04-2.26819E+04-6.39001E-10-1.67853E-10
 -1       705-1.21180E+04-4.31275E+05-2.07530E+04-2.74775E+04-4.26985E-10-3.13178E-11
 -1       706-1.45657E+04-4.35860E+05-2.06075E+04-3.13883E+04 3.98369E-10 6.78893E-11
 -1       707-1.69703E+04-4.40510E+05-2.07465E+04-3.46003E+04-4.05821E-10-1.54220E-11
 -1       708-1.93811E+04-4.45336E+05-2.11195E+04-3.72177E+04 1.34032E-10-8.61907E-11
 -1       709-2.18282E+04-4.50439E+05-2.16939E+04-3.92879E+04 1.50503E-10 7.17059E-12
 -1       710-2.43252E+04-4.55925E+05-2.24482E+04-4.08199E+04 1.49955E-10 4.24714E-11
 -1       711-2.68726E+04-4.61904E+05-2.33679E+04-4.17954E+04-3.91823E-10-6.08203E-11
 -1       712-2.94613E+04-4.68491E+05-2.44434E+04-4.21762E+04-1.04673E-10-1.01336E-10
 -1       713-3.20746E+04-4.75811E+05-2.56679E+04-4.19082E+04-3.44081E-10-1.42613E-12
 -1       714-3.46903E+04-4.83992E+05-2.70365E+04-4.09235E+04-3.80401E-10-1.69962E-10
 -1       715-3.72821E+04-4.93169E+05-2.85459E+04-3.91412E+04 2.41007E-10 1.57007E-10
 -1       716-3.98208E+04-5.03479E+05-3.01932E+04-3.64677E+04-2.14145E-10-1.79481E-11
 -1       717-4.22763E+04-5.15058E+05-3.19763E+04-3.27956E+04-4.48684E-10-1.79346E-10
 -1       718-4.46198E+04-5.28043E+05-3.38931E+04-2.80027E+04-4.32941E-12-4.40496E-11
 -1       719-4.68273E+04-5.42558E+05-3.59417E+04-2.19488E+04 1.01884E-10 7.46084E-11
 -1       720-4.88842E+04-5.58716E+05-3.81202E+04-1.44718E+04 5.40718E-10-1.07985E-11
 -1       721-5.07927E+04-5.76605E+05-4.04274E+04-5.38139E+03 4.81703E-10-7.59799E-12
 -1       722-5.25801E+04-5.96280E+05-4.28628E+04 5.55122E+03-1.74283E-10 3.67724E-11
 -1       723-5.43113E+04-6.17749E+05-4.54275E+04 1.86084E+04 3.38562E-10-6.04853E-11
 -1       724-5.61014E+04-6.40961E+05-4.81261E+04 3.41494E+04-1.78216E-10-1.25320E-11
 -1       725-5.81304E+04-6.65797E+05-5.09676E+04 5.26445E+04-3.57391E-10 1.94744E-11
 -1       726-6.06522E+04-6.92070E+05-5.39689E+04 7.47236E+04-1.56633E-10 4.29552E-11
 -1       727-6.39927E+04-7.19544E+05-5.71576E+04 1.01243E+05-2.13131E-11 1.07303E-10
 -1       728-6.85208E+04-7.48000E+05-6.05768E+04 1.33366E+05 9.39716E-10-1.46887E-10
 -1       729-7.45757E+04-7.77373E+05-6.42902E+04 1.72647E+05-2.10337E-11 2.18828E-10
 -1       730-8.23294E+04-8.07987E+05-6.83880E+04 2.21082E+05 3.03625E-11-5.61836E-11
 -1       731-9.08221E+04-8.62222E+05-7.50481E+04 2.52407E+05-1.42797E-10 1.70517E-10
 -1       801-3.14066E+03-3.97329E+05-4.50060E+04-4.34862E+03 6.67019E-10 6.19080E-11
 -1       802-5.83559E+03-4.05055E+05-3.99479E+04-8.18944E+03-2.45204E-09-5.80045E-10
 -1       803-1.06355E+04-4.11817E+05-3.69721E+04-1.51054E+04-1.27231E-10 1.90930E-10
 -1       804-1.47566E+04-4.17759E+05-3.50945E+04-2.05824E+04-4.70192E-11-6.10835E-11
 -1       805-1.84657E+04-4.23239E+05-3.39804E+04-2.49920E+04 3.84550E-10 1.93521E-10
 -1       806-2.19221E+04-4.28515E+05-3.34246E+04-2.85823E+04-4.62750E-10-1.65790E-10
 -1       807-2.52285E+04-4.33776E+05-3.32963E+04-3.15148E+04 5.30977E-10-5.52430E-12
 -1       808-2.84525E+04-4.39175E+05-3.35090E+04-3.38867E+04-1.17383E-11 4.88574E-11
 -1       809-3.16366E+04-4.44847E+05-3.40046E+04-3.57482E+04 4.88938E-10 1.76248E-10
 -1       810-3.48038E+04-4.50918E+05-3.47429E+04-3.71146E+04 3.25259E-10 1.77885E-11
 -1       811-3.79618E+04-4.57514E+05-3.56956E+04-3.79759E+04-2.44365E-10-3.29907E-11
 -1       812-4.11060E+04-4.64765E+05-3.68426E+04-3.83023E+04 8.35186E-10 2.17133E-10
 -1       813-4.42218E+04-4.72804E+05-3.81687E+04-3.80484E+04-4.05236E-10-9.28407E-11
 -1       814-4.72870E+04-4.81770E+05-3.96628E+04-3.71550E+04-9.22013E-11-2.14350E-11
 -1       815-5.02734E+04-4.91808E+05-4.13159E+04-3.55497E+04 1.83588E-10 1.31072E-10
 -1       816-5.31477E+04-5.03066E+05-4.31208E+04-3.31473E+04 2.29778E-10 1.29771E-10
 -1       817-5.58739E+04-5.15695E+05-4.50715E+04-2.98478E+04-2.43639E-10-1.24942E-10
 -1       818-5.84147E+04-5.29847E+05-4.71628E+04-2.55349E+04 3.99296E-10 1.68117E-11
 -1       819-6.07341E+04-5.45672E+05-4.93900E+04-2.00719E+04 3.70641E-10 1.74689E-10
 -1       820-6.28012E+04-5.63316E+05-5.17490E+04-1.32971E+04-6.14382E-10-2.69049E-10
 -1       821-6.45938E+04-5.82913E+05-5.42364E+04-5.01570E+03-1.46963E-10 6.78550E-11
 -1       822-6.61036E+04-6.04582E+05-5.68498E+04 5.01036E+03-6.37022E-10-1.00737E-11
 -1       823-6.73424E+04-6.28425E+05-5.95886E+04 1.70777E+04-2.98633E-10-1.74153E-10
 -1       824-6.83465E+04-6.54521E+05-6.24546E+04 3.15618E+04 1.81558E-10 4.05132E-11
 -1       825-6.91797E+04-6.82931E+05-6.54531E+04 4.89446E+04 7.00125E-10 7.34729E-11
 -1       826-6.99312E+04-7.13709E+05-6.85948E+04 6.98492E+04-4.47515E-10-1.15302E-10
 -1       827-7.07015E+04-7.46932E+05-7.18973E+04 9.50811E+04 3.64618E-10 2.15415E-10
 -1       828-7.15729E+04-7.82754E+05-7.53867E+04 1.25670E+05-1.23272E-10-1.10746E-10
 -1       829-7.25554E+04-8.21501E+05-7.91005E+04 1.62903E+05-6.52365E-10-5.68228E-11
 -1       830-7.35070E+04-8.63800E+05-8.30882E+04 2.08322E+05-6.25937E-10-2.77427E-11
 -1       831-7.84377E+04-9.27616E+05-8.95403E+04 2.37639E+05-3.57887E-10-1.47078E-10
 -1       901-4.26131E+03-3.86231E+05-6.13785E+04-3.79923E+03 5.91166E-10-5.95989E-11
 -1       902-7.73178E+03-3.95032E+05-5.44412E+04-7.17960E+03 1.43997E-09 4.63917E-10
 -1       903-1.40226E+04-4.02835E+05-5.03061E+04-1.32770E+04-1.21897E-09-2.65738E-10
 -1       904-1.93236E+04-4.09658E+05-4.76309E+04-1.81399E+04 3.09993E-10 1.20451E-10
 -1       905-2.40230E+04-4.15885E+05-4.59631E+04-2.20716E+04-1.98882E-10-1.47657E-10
 -1       906-2.83444E+04-4.21804E+05-4.50261E+04-2.52754E+04 1.44654E-10-8.95017E-11
 -1       907-3.24244E+04-4.27639E+05-4.46427E+04-2.78862E+04-8.09794E-10-1.15376E-10
 -1       908-3.63489E+04-4.33574E+05-4.46951E+04-2.99887E+04 8.08069E-10 1.76704E-10
 -1       909-4.01710E+04-4.39768E+05-4.51031E+04-3.16298E+04-4.29208E-11 5.40026E-13
 -1       910-4.39206E+04-4.46369E+05-4.58103E+04-3.28271E+04-5.65556E-10-2.18239E-10
 -1       911-4.76100E+04-4.53518E+05-4.67762E+04-3.35761E+04 4.73496E-10 4.71126E-11
 -1       912-5.12373E+04-4.61358E+05-4.79713E+04-3.38541E+04-6.11662E-10-7.60717E-11
 -1       913-5.47895E+04-4.70033E+05-4.93733E+04-3.36237E+04-6.31884E-10-2.24941E-10
 -1       914-5.82439E+04-4.79692E+05-5.09651E+04-3.28344E+04 8.38817E-10 1.32827E-10
 -1       915-6.15700E+04-4.90490E+05-5.27331E+04-3.14229E+04 1.50153E-11-3.05331E-11
 -1       916-6.47303E+04-5.02587E+05-5.46660E+04-2.93129E+04 4.16335E-11-2.42063E-11
 -1       917-6.76821E+04-5.16150E+05-5.67544E+04-2.64133E+04 1.67776E-10-1.24357E-11
 -1       918-7.03785E+04-5.31349E+05-5.89903E+04-2.26165E+04 2.83401E-10 6.92912E-11
 -1       919-7.27694E+04-5.48360E+05-6.13661E+04-1.77934E+04-5.94762E-10-2.53957E-10
 -1       920-7.48038E+04-5.67363E+05-6.38752E+04-1.17890E+04-5.09584E-10-2.29092E-11
 -1       921-7.64312E+04-5.88538E+05-6.65116E+04-4.41477E+03 4.13391E-11-1.22555E-12
 -1       922-7.76034E+04-6.12068E+05-6.92703E+04 4.56175E+03 6.53069E-10-1.28310E-11
 -1       923-7.82750E+04-6.38141E+05-7.21471E+04 1.54295E+04-3.90024E-10 3.63208E-11
 -1       924-7.84037E+04-6.66951E+05-7.51392E+04 2.85508E+04-1.32175E-10-9.40981E-11
 -1       925-7.79464E+04-6.98706E+05-7.82461E+04 4.43817E+04-1.08504E-09-2.52888E-10
 -1       926-7.68508E+04-7.33650E+05-8.14694E+04 6.34959E+04 8.03561E-10 2.68310E-10
 -1       927-7.50399E+04-7.72082E+05-8.48140E+04 8.66088E+04-4.09881E-10-1.36316E-10
 -1       928-7.23866E+04-8.14405E+05-8.82884E+04 1.14599E+05 6.37752E-10 7.84513E-11
 -1       929-6.86774E+04-8.61180E+05-9.19045E+04 1.48519E+05 4.41331E-10-4.47915E-11
 -1       930-6.35691E+04-9.13194E+05-9.56779E+04 1.89582E+05 1.17485E-09 1.28670E-10
 -1       931-6.53311E+04-9.84586E+05-1.01811E+05 2.16045E+05-1.00231E-10-7.68071E-11
 -1      1001-5.22618E+03-3.76607E+05-7.57066E+04-3.21147E+03-1.49501E-09-2.76605E-10
 -1      1002-9.35943E+03-3.86275E+05-6.71518E+04-6.08645E+03 2.70031E-10-9.22270E-12
 -1      1003-1.69284E+04-3.94937E+05-6.20111E+04-1.12776E+04 3.40408E-11-1.14451E-10
 -1      1004-2.32350E+04-4.02505E+05-5.86389E+04-1.54409E+04-1.27479E-10 4.46014E-11
 -1      1005-2.87718E+04-4.09379E+05-5.64831E+04-1.88199E+04-1.90012E-11-2.79329E-11
 -1      1006-3.38204E+04-4.15868E+05-5.52058E+04-2.15781E+04-3.12653E-10-5.19244E-11
 -1      1007-3.85491E+04-4.22217E+05-5.45904E+04-2.38247E+04-1.77446E-10-9.83659E-11
 -1      1008-4.30616E+04-4.28631E+05-5.44925E+04-2.56299E+04 2.16823E-10 3.24366E-12
 -1      1009-4.74206E+04-4.35291E+05-5.48130E+04-2.70343E+04-1.01819E-09-2.68616E-10
 -1      1010-5.16619E+04-4.42359E+05-5.54816E+04-2.80548E+04 3.49802E-10 1.29773E-10
 -1      1011-5.58009E+04-4.49991E+05-5.64478E+04-2.86900E+04-2.81028E-10-6.67021E-11
 -1      1012-5.98377E+04-4.58342E+05-5.76738E+04-2.89228E+04 6.72619E-10 2.06197E-10
 -1      1013-6.37594E+04-4.67565E+05-5.91312E+04-2.87231E+04-1.63080E-10-6.08323E-11
 -1      1014-6.75423E+04-4.77821E+05-6.07979E+04-2.80487E+04 1.03898E-10 7.34616E-12
 -1      1015-7.11533E+04-4.89274E+05-6.26560E+04-2.68460E+04-9.16141E-10-2.53395E-10
 -1      1016-7.45504E+04-5.02097E+05-6.46910E+04-2.50486E+04 1.31707E-10 1.42173E-10
 -1      1017-7.76838E+04-5.16471E+05-6.68903E+04-2.25765E+04 2.42249E-10 2.28226E-11
 -1      1018-8.04958E+04-5.32586E+05-6.92431E+04-1.93335E+04-4.61502E-10-1.37220E-10
 -1      1019-8.29219E+04-5.50642E+05-7.17394E+04-1.52033E+04-3.86749E-11-1.82209E-11
 -1      1020-8.48901E+04-5.70852E+05-7.43699E+04-1.00446E+04-1.24647E-10-2.62521E-11
 -1      1021-8.63209E+04-5.93439E+05-7.71258E+04-3.68455E+03-4.95657E-11-1.72110E-11
 -1      1022-8.71264E+04-6.18646E+05-7.99987E+04 4.08973E+03 7.16023E-10 2.16366E-11
 -1      1023-8.72078E+04-6.46732E+05-8.29804E+04 1.35418E+04-8.03505E-10-1.71528E-10
 -1      1024-8.64517E+04-6.77988E+05-8.60630E+04 2.49987E+04 4.88679E-10 8.85334E-11
 -1      1025-8.47234E+04-7.12742E+05-8.92389E+04 3.88655E+04-4.11554E-10-9.99029E-11
 -1      1026-8.18566E+04-7.51378E+05-9.25005E+04 5.56408E+04 1.51541E-10 9.14591E-11
 -1      1027-7.76377E+04-7.94356E+05-9.58403E+04 7.59315E+04-9.33040E-10-2.54695E-10
 -1      1028-7.17866E+04-8.42247E+05-9.92501E+04 1.00464E+05-7.12690E-10-2.89570E-11
 -1      1029-6.39322E+04-8.95765E+05-1.02721E+05 1.30087E+05 1.08719E-09 2.28754E-10
 -1      1030-5.35890E+04-9.55800E+05-1.06240E+05 1.65761E+05-1.64132E-10 5.78788E-11
 -1      1031-5.26204E+04-1.03327E+06-1.12024E+05 1.88723E+05 1.16434E-09 1.35173E-10
 -1      1101-6.02610E+03-3.68577E+05-8.77513E+04-2.59622E+03 1.00586E-09-1.36974E-11
 -1      1102-1.07062E+04-3.78928E+05-7.78562E+04-4.93203E+03 8.52292E-10 2.54734E-10
 -1      1103-1.93325E+04-3.88279E+05-7.18771E+04-9.15217E+03-8.86295E-10-1.51340E-10
 -1      1104-2.64678E+04-3.96454E+05-6.79203E+04-1.25514E+04 5.22987E-10 1.04856E-10
 -1      1105-3.26911E+04-4.03865E+05-6.53523E+04-1.53192E+04 1.06016E-09 2.05471E-10
 -1      1106-3.83326E+04-4.10833E+05-6.37851E+04-1.75826E+04 6.97984E-10 1.37073E-10
 -1      1107-4.35886E+04-4.17619E+05-6.29694E+04-1.94269E+04 1.99562E-11-6.71454E-12
 -1      1108-4.85785E+04-4.24444E+05-6.27390E+04-2.09077E+04-3.91965E-10-7.70297E-11
 -1      1109-5.33741E+04-4.31500E+05-6.29790E+04-2.20576E+04 6.52699E-11 1.90338E-11
 -1      1110-5.80158E+04-4.38963E+05-6.36082E+04-2.28912E+04 9.43563E-10 1.26037E-10
 -1      1111-6.25219E+04-4.47002E+05-6.45672E+04-2.34085E+04-1.07617E-10 3.88090E-11
 -1      1112-6.68932E+04-4.55779E+05-6.58120E+04-2.35969E+04-2.97258E-10-1.86228E-10
 -1      1113-7.11167E+04-4.65460E+05-6.73088E+04-2.34328E+04 6.67896E-10 1.94239E-10
 -1      1114-7.51673E+04-4.76212E+05-6.90315E+04-2.28825E+04 5.18773E-10 1.29533E-10
 -1      1115-7.90089E+04-4.88211E+05-7.09586E+04-2.19019E+04-3.83329E-10-1.10165E-10
 -1      1116-8.25949E+04-5.01640E+05-7.30728E+04-2.04363E+04 2.76031E-10 1.18870E-11
 -1      1117-8.58682E+04-5.16694E+05-7.53588E+04-1.84188E+04 4.40627E-11 6.88115E-12
 -1      1118-8.87613E+04-5.33581E+05-7.78034E+04-1.57676E+04 4.60520E-12-2.43249E-11
 -1      1119-9.11952E+04-5.52524E+05-8.03941E+04-1.23838E+04-4.56646E-11 1.37627E-11
 -1      1120-9.30784E+04-5.73763E+05-8.31194E+04-8.14628E+03 4.22075E-10 1.49286E-10
 -1      1121-9.43047E+04-5.97562E+05-8.59675E+04-2.90661E+03 1.44659E-10 4.77638E-11
 -1      1122-9.47505E+04-6.24210E+05-8.89268E+04 3.51760E+03-3.55960E-11-9.28870E-11
 -1      1123-9.42708E+04-6.54030E+05-9.19851E+04 1.13510E+04 9.32586E-10 1.89024E-10
 -1      1124-9.26928E+04-6.87387E+05-9.51294E+04 2.08697E+04-1.10092E-09-7.57226E-11
 -1      1125-8.98079E+04-7.24700E+05-9.83453E+04 3.24112E+04 7.99952E-10 1.17798E-10
 -1      1126-8.53611E+04-7.66458E+05-1.01617E+05 4.63850E+04-5.09092E-10-1.14809E-10
 -1      1127-7.90367E+04-8.13238E+05-1.04925E+05 6.32810E+04 3.93252E-10 1.05964E-10
 -1      1128-7.04426E+04-8.65726E+05-1.08249E+05 8.36762E+04 2.87635E-10 2.79809E-12
 -1      1129-5.90932E+04-9.24742E+05-1.11562E+05 1.08236E+05-2.05285E-10-2.25374E-11
 -1      1130-4.43944E+04-9.91256E+05-1.14831E+05 1.37711E+05-3.66848E-10-1.42798E-10
 -1      1131-4.11590E+04-1.07356E+06-1.20285E+05 1.56667E+05 4.44672E-10 6.82822E-11
 -1      1201-6.65439E+03-3.62237E+05-9.73186E+04-1.96172E+03-8.39783E-10-1.23483E-10
 -1      1202-1.17627E+04-3.73103E+05-8.63717E+04-3.73355E+03-6.07345E-10-1.02297E-10
 -1      1203-2.12184E+04-3.82982E+05-7.97311E+04-6.93580E+03 1.00897E-09 1.84288E-10
 -1      1204-2.90027E+04-3.91627E+05-7.53112E+04-9.52344E+03-2.07465E-10-9.08709E-11
 -1      1205-3.57613E+04-3.99458E+05-7.24150E+04-1.16357E+04-6.28662E-10-1.83614E-11
 -1      1206-4.18632E+04-4.06806E+05-7.06154E+04-1.33659E+04 2.11350E-10 2.39863E-11
 -1      1207-4.75275E+04-4.13941E+05-6.96376E+04-1.47767E+04 2.12429E-10 2.82550E-11
 -1      1208-5.28865E+04-4.21094E+05-6.92983E+04-1.59092E+04-1.59823E-10-7.30052E-11
 -1      1209-5.80197E+04-4.28468E+05-6.94705E+04-1.67880E+04 3.32018E-10 7.18052E-11
 -1      1210-6.29714E+04-4.36247E+05-7.00641E+04-1.74242E+04 4.03886E-10 2.57758E-11
 -1      1211-6.77619E+04-4.44609E+05-7.10131E+04-1.78185E+04 1.88482E-10 5.45574E-11
 -1      1212-7.23927E+04-4.53725E+05-7.22685E+04-1.79617E+04-9.30205E-10-1.28142E-10
 -1      1213-7.68502E+04-4.63767E+05-7.37924E+04-1.78364E+04 2.32023E-10 1.33166E-11
 -1      1214-8.11078E+04-4.74911E+05-7.55553E+04-1.74173E+04-1.05090E-10-2.10097E-11
 -1      1215-8.51265E+04-4.87341E+05-7.75332E+04-1.66706E+04-2.00030E-10 6.57654E-12
 -1      1216-8.88555E+04-5.01251E+05-7.97061E+04-1.55543E+04-6.64997E-10-5.51370E-11
 -1      1217-9.22313E+04-5.16846E+05-8.20570E+04-1.40160E+04 1.63419E-10 5.99437E-11
 -1      1218-9.51775E+04-5.34349E+05-8.45703E+04-1.19921E+04 6.90482E-10 2.06936E-10
 -1      1219-9.76027E+04-5.54002E+05-8.72318E+04-9.40433E+03-1.77188E-10-6.24380E-11
 -1      1220-9.93984E+04-5.76070E+05-9.00276E+04-6.15739E+03-9.32023E-11-9.79466E-11
 -1      1221-1.00436E+05-6.00847E+05-9.29436E+04-2.13412E+03 1.53858E-10 5.64628E-11
 -1      1222-1.00564E+05-6.28660E+05-9.59652E+04 2.80905E+03-7.58517E-10-2.44175E-10
 -1      1223-9.95982E+04-6.59881E+05-9.90767E+04 8.84803E+03 2.85087E-11 3.72689E-11
 -1      1224-9.73208E+04-6.94931E+05-1.02261E+05 1.61974E+04-3.59452E-10 1.22917E-10
 -1      1225-9.34669E+04-7.34297E+05-1.05497E+05 2.51172E+04-1.21699E-10-7.39770E-11
 -1      1226-8.77157E+04-7.78542E+05-1.08763E+05 3.59193E+04-5.96589E-10-3.01457E-11
 -1      1227-7.96774E+04-8.28325E+05-1.12031E+05 4.89730E+04 1.25850E-09 1.36643E-10
 -1      1228-6.88796E+04-8.84413E+05-1.15268E+05 6.47090E+04-8.42095E-10-1.03599E-10
 -1      1229-5.47532E+04-9.47701E+05-1.18436E+05 8.36219E+04-5.81447E-10-5.04998E-11
 -1      1230-3.66196E+04-1.01923E+06-1.21486E+05 1.06269E+05-4.79334E-10-4.81227E-11
 -1      1231-3.16000E+04-1.10524E+06-1.26660E+05 1.20826E+05 2.82066E-10 1.13027E-10
 -1      1301-7.10629E+03-3.57659E+05-1.04259E+05-1.31432E+03 9.27064E-10 2.86983E-10
 -1      1302-1.25219E+04-3.68884E+05-9.25558E+04-2.50472E+03 2.28755E-10-2.70455E-11
 -1      1303-2.25740E+04-3.79136E+05-8.54382E+04-4.65654E+03-2.14877E-11-1.55093E-12
 -1      1304-3.08241E+04-3.88115E+05-8.06831E+04-6.39921E+03-1.98349E-10-5.81391E-11
 -1      1305-3.79661E+04-3.96248E+05-7.75485E+04-7.82432E+03-5.88951E-10-4.81102E-11
 -1      1306-4.43969E+04-4.03870E+05-7.55792E+04-8.99307E+03 4.80714E-10 1.05495E-11
 -1      1307-5.03520E+04-4.11259E+05-7.44824E+04-9.94674E+03 6.04063E-10 1.06325E-10
 -1      1308-5.59736E+04-4.18651E+05-7.40623E+04-1.07124E+04 3.08316E-10 1.83596E-11
 -1      1309-6.13467E+04-4.26256E+05-7.41832E+04-1.13062E+04 1.73959E-10 4.61470E-11
 -1      1310-6.65190E+04-4.34266E+05-7.47489E+04-1.17360E+04-4.87440E-10-5.67161E-11
 -1      1311-7.15119E+04-4.42863E+05-7.56885E+04-1.20021E+04-7.39529E-10-6.00196E-11
 -1      1312-7.63274E+04-4.52224E+05-7.69493E+04-1.20988E+04 3.89972E-10 8.94074E-12
 -1      1313-8.09514E+04-4.62528E+05-7.84906E+04-1.20144E+04-9.47036E-10-1.57632E-10
 -1      1314-8.53559E+04-4.73956E+05-8.02805E+04-1.17318E+04-2.62369E-10-1.99928E-11
 -1      1315-8.94997E+04-4.86698E+05-8.22930E+04-1.12285E+04 5.09965E-10 4.99433E-11
 -1      1316-9.33283E+04-5.00955E+05-8.45065E+04-1.04757E+04-1.24276E-10 1.23775E-11
 -1      1317-9.67735E+04-5.16943E+05-8.69022E+04-9.43759E+03 9.64539E-11 1.01562E-12
 -1      1318-9.97516E+04-5.34896E+05-8.94632E+04-8.07037E+03-5.64097E-10-1.24392E-11
 -1      1319-1.02162E+05-5.55068E+05-9.21736E+04-6.32023E+03 4.61182E-10 2.94017E-11
 -1      1320-1.03883E+05-5.77744E+05-9.50179E+04-4.12132E+03-1.71124E-10-1.16809E-12
 -1      1321-1.04770E+05-6.03238E+05-9.79801E+04-1.39282E+03-3.58085E-10-1.01665E-10
 -1      1322-1.04648E+05-6.31908E+05-1.01043E+05 1.96403E+03-4.89356E-11 1.38603E-10
 -1      1323-1.03309E+05-6.64157E+05-1.04189E+05 6.06987E+03 2.76119E-10-3.72310E-11
 -1      1324-1.00501E+05-7.00447E+05-1.07397E+05 1.10710E+04 2.99958E-10-1.65455E-11
 -1      1325-9.59191E+04-7.41310E+05-1.10642E+05 1.71437E+04-3.78551E-10 3.47270E-13
 -1      1326-8.91982E+04-7.87362E+05-1.13897E+05 2.44977E+04 4.52666E-10-1.31533E-11
 -1      1327-7.98979E+04-8.39312E+05-1.17127E+05 3.33800E+04 1.70528E-10-4.21720E-11
 -1      1328-6.74912E+04-8.97984E+05-1.20293E+05 4.40771E+04-4.37422E-11 4.94752E-11
 -1      1329-5.13512E+04-9.64327E+05-1.23346E+05 5.69174E+04-1.38112E-10-1.92386E-11
 -1      1330-3.07382E+04-1.03943E+06-1.26228E+05 7.22728E+04-2.84055E-10-4.79838E-11
 -1      1331-2.44321E+04-1.12808E+06-1.31191E+05 8.21387E+04 7.74235E-10 3.49075E-10
 -1      1401-7.37863E+03-3.54892E+05-1.08465E+05-6.59027E+02-4.13420E-10 5.64392E-11
 -1      1402-1.29793E+04-3.66331E+05-9.63071E+04-1.25692E+03-6.34066E-10-4.68469E-13
 -1      1403-2.33906E+04-3.76804E+05-8.89014E+04-2.33779E+03-2.80594E-10 1.19693E-11
 -1      1404-3.19213E+04-3.85983E+05-8.39434E+04-3.21428E+03-2.70928E-10 8.30788E-11
 -1      1405-3.92938E+04-3.94296E+05-8.06641E+04-3.93182E+03 3.86422E-10 1.12302E-11
 -1      1406-4.59219E+04-4.02084E+05-7.85916E+04-4.52074E+03-6.85609E-10 1.12943E-11
 -1      1407-5.20512E+04-4.09627E+05-7.74221E+04-5.00150E+03-6.71513E-10-6.14006E-11
 -1      1408-5.78300E+04-4.17164E+05-7.69524E+04-5.38753E+03-6.19908E-11 1.25396E-11
 -1      1409-6.33466E+04-4.24910E+05-7.70415E+04-5.68694E+03-1.33916E-10 1.83889E-11
 -1      1410-6.86508E+04-4.33061E+05-7.75894E+04-5.90357E+03-2.14022E-10-1.57952E-11
 -1      1411-7.37648E+04-4.41800E+05-7.85225E+04-6.03767E+03-4.88299E-10-1.79838E-11
 -1      1412-7.86909E+04-4.51310E+05-7.97857E+04-6.08639E+03-1.62618E-10 2.68361E-12
 -1      1413-8.34145E+04-4.61772E+05-8.13367E+04-6.04392E+03 4.72453E-10 1.19218E-11
 -1      1414-8.79067E+04-4.73372E+05-8.31421E+04-5.90174E+03-7.48833E-10-4.77524E-11
 -1      1415-9.21248E+04-4.86303E+05-8.51748E+04-5.64838E+03-6.57726E-11 4.34789E-11
 -1      1416-9.60121E+04-5.00771E+05-8.74119E+04-5.26929E+03-5.79045E-10-7.44017E-11
 -1      1417-9.94971E+04-5.16998E+05-8.98339E+04-4.74631E+03-7.88624E-10-5.31576E-11
 -1      1418-1.02492E+05-5.35223E+05-9.24229E+04-4.05715E+03-1.22064E-10-6.82957E-11
 -1      1419-1.04889E+05-5.55712E+05-9.51620E+04-3.17432E+03-1.72913E-10 1.05247E-10
 -1      1420-1.06561E+05-5.78759E+05-9.80346E+04-2.06428E+03-1.44679E-10-2.95193E-11
 -1      1421-1.07350E+05-6.04692E+05-1.01024E+05-6.85779E+02-4.16846E-10-2.33427E-12
 -1      1422-1.07071E+05-6.33885E+05-1.04111E+05 1.01143E+03-3.64447E-10-2.28973E-11
 -1      1423-1.05497E+05-6.66762E+05-1.07276E+05 3.08864E+03-6.38450E-11-3.18549E-11
 -1      1424-1.02358E+05-7.03808E+05-1.10496E+05 5.61994E+03-5.15112E-10 7.26978E-12
 -1      1425-9.73252E+04-7.45582E+05-1.13744E+05 8.69416E+03-1.83925E-10 4.68593E-12
 -1      1426-9.00078E+04-7.92728E+05-1.16989E+05 1.24168E+04-3.42432E-10-1.98916E-11
 -1      1427-7.99360E+04-8.45988E+05-1.20193E+05 1.69115E+04-8.95584E-10-2.99074E-11
 -1      1428-6.65508E+04-9.06216E+05-1.23312E+05 2.23215E+04 5.37173E-10 9.42260E-11
 -1      1429-4.91911E+04-9.74393E+05-1.26292E+05 2.88106E+04-4.09271E-10-1.02543E-10
 -1      1430-2.70795E+04-1.05164E+06-1.29069E+05 3.65653E+04 6.73631E-10 6.55894E-11
 -1      1431-1.99964E+04-1.14187E+06-1.33900E+05 4.15465E+04-2.79968E-10-5.69176E-11
 -1      1501-7.46960E+03-3.53967E+05-1.09875E+05-3.80738E+03 4.86948E-11-3.51389E-10
 -1      1502-1.31320E+04-3.65476E+05-9.75643E+04-3.83148E+03 3.61162E-10 1.41367E-10
 -1      1503-2.36634E+04-3.76023E+05-9.00622E+04-3.90923E+03-2.82034E-10 7.19201E-12
 -1      1504-3.22878E+04-3.85268E+05-8.50363E+04-4.02662E+03 2.51773E-09-2.47940E-11
 -1      1505-3.97372E+04-3.93641E+05-8.17086E+04-4.17519E+03-4.71530E-10 1.17786E-11
 -1      1506-4.64311E+04-4.01485E+05-7.96015E+04-4.34952E+03-8.51710E-10 2.91169E-11
 -1      1507-5.26184E+04-4.09079E+05-7.84076E+04-4.54599E+03 1.52101E-09-3.53598E-13
 -1      1508-5.84495E+04-4.16665E+05-7.79210E+04-4.76196E+03-8.60858E-10 5.17829E-11
 -1      1509-6.40139E+04-4.24459E+05-7.79994E+04-4.99538E+03 8.64950E-10-6.26307E-11
 -1      1510-6.93620E+04-4.32656E+05-7.85412E+04-5.24447E+03-1.01787E-09-3.25919E-11
 -1      1511-7.45163E+04-4.41443E+05-7.94720E+04-5.50758E+03 1.24978E-09 2.02377E-11
 -1      1512-7.94791E+04-4.51003E+05-8.07359E+04-5.78307E+03-3.10556E-10 8.84614E-11
 -1      1513-8.42359E+04-4.61518E+05-8.22900E+04-6.06913E+03-1.30139E-09-6.20891E-11
 -1      1514-8.87572E+04-4.73176E+05-8.41004E+04-6.36385E+03 3.51301E-10-1.71688E-12
 -1      1515-9.30000E+04-4.86170E+05-8.61397E+04-6.66497E+03 6.41518E-11 1.30377E-10
 -1      1516-9.69066E+04-5.00709E+05-8.83846E+04-6.96989E+03-5.01132E-10-5.87153E-11
 -1      1517-1.00405E+05-5.17016E+05-9.08153E+04-7.27546E+03 4.22399E-10-9.55583E-11
 -1      1518-1.03404E+05-5.35333E+05-9.34135E+04-7.57789E+03-4.26960E-10-1.61229E-11
 -1      1519-1.05797E+05-5.55928E+05-9.61620E+04-7.87241E+03 1.69764E-10 1.89253E-10
 -1      1520-1.07451E+05-5.79099E+05-9.90439E+04-8.15314E+03-3.34142E-10-2.10438E-10
 -1      1521-1.08207E+05-6.05180E+05-1.02042E+05-8.41263E+03 8.58204E-10 1.18244E-10
 -1      1522-1.07874E+05-6.34549E+05-1.05137E+05-8.64156E+03-5.95566E-10-3.58759E-11
 -1      1523-1.06220E+05-6.67637E+05-1.08308E+05-8.82819E+03 5.14712E-11-3.51897E-11
 -1      1524-1.02968E+05-7.04937E+05-1.11531E+05-8.95792E+03 3.65807E-10-2.90840E-11
 -1      1525-9.77829E+04-7.47017E+05-1.14780E+05-9.01274E+03 7.92670E-10 6.08542E-11
 -1      1526-9.02644E+04-7.94529E+05-1.18021E+05-8.97059E+03 6.44510E-10 9.38712E-11
 -1      1527-7.99330E+04-8.48226E+05-1.21216E+05-8.80495E+03-8.85421E-10-4.40554E-11
 -1      1528-6.62196E+04-9.08974E+05-1.24319E+05-8.48423E+03 4.39434E-10-2.36990E-11
 -1      1529-4.84513E+04-9.77764E+05-1.27274E+05-7.97131E+03 1.79379E-10 6.87271E-12
 -1      1530-2.58383E+04-1.05573E+06-1.30015E+05-7.22295E+03-1.07114E-09 1.08867E-10
 -1      1531-1.84954E+04-1.14648E+06-1.34802E+05-6.37599E+03 5.44269E-10-2.54358E-10
 -3
 9999
